%%MatrixMarket matrix coordinate integer general
%
135 270 810
1 1 1
1 11 1
1 105 1
1 136 1
1 224 1
1 225 1
2 2 1
2 12 1
2 106 1
2 137 1
2 217 1
2 225 1
3 3 1
3 13 1
3 107 1
3 138 1
3 217 1
3 218 1
4 4 1
4 14 1
4 108 1
4 139 1
4 218 1
4 219 1
5 5 1
5 15 1
5 100 1
5 140 1
5 219 1
5 220 1
6 6 1
6 16 1
6 101 1
6 141 1
6 220 1
6 221 1
7 7 1
7 17 1
7 102 1
7 142 1
7 221 1
7 222 1
8 8 1
8 18 1
8 103 1
8 143 1
8 222 1
8 223 1
9 9 1
9 10 1
9 104 1
9 144 1
9 223 1
9 224 1
10 10 1
10 20 1
10 114 1
10 145 1
10 233 1
10 234 1
11 11 1
11 21 1
11 115 1
11 146 1
11 226 1
11 234 1
12 12 1
12 22 1
12 116 1
12 147 1
12 226 1
12 227 1
13 13 1
13 23 1
13 117 1
13 148 1
13 227 1
13 228 1
14 14 1
14 24 1
14 109 1
14 149 1
14 228 1
14 229 1
15 15 1
15 25 1
15 110 1
15 150 1
15 229 1
15 230 1
16 16 1
16 26 1
16 111 1
16 151 1
16 230 1
16 231 1
17 17 1
17 27 1
17 112 1
17 152 1
17 231 1
17 232 1
18 18 1
18 19 1
18 113 1
18 153 1
18 232 1
18 233 1
19 19 1
19 29 1
19 123 1
19 154 1
19 242 1
19 243 1
20 20 1
20 30 1
20 124 1
20 155 1
20 235 1
20 243 1
21 21 1
21 31 1
21 125 1
21 156 1
21 235 1
21 236 1
22 22 1
22 32 1
22 126 1
22 157 1
22 236 1
22 237 1
23 23 1
23 33 1
23 118 1
23 158 1
23 237 1
23 238 1
24 24 1
24 34 1
24 119 1
24 159 1
24 238 1
24 239 1
25 25 1
25 35 1
25 120 1
25 160 1
25 239 1
25 240 1
26 26 1
26 36 1
26 121 1
26 161 1
26 240 1
26 241 1
27 27 1
27 28 1
27 122 1
27 162 1
27 241 1
27 242 1
28 28 1
28 38 1
28 132 1
28 163 1
28 251 1
28 252 1
29 29 1
29 39 1
29 133 1
29 164 1
29 244 1
29 252 1
30 30 1
30 40 1
30 134 1
30 165 1
30 244 1
30 245 1
31 31 1
31 41 1
31 135 1
31 166 1
31 245 1
31 246 1
32 32 1
32 42 1
32 127 1
32 167 1
32 246 1
32 247 1
33 33 1
33 43 1
33 128 1
33 168 1
33 247 1
33 248 1
34 34 1
34 44 1
34 129 1
34 169 1
34 248 1
34 249 1
35 35 1
35 45 1
35 130 1
35 170 1
35 249 1
35 250 1
36 36 1
36 37 1
36 131 1
36 171 1
36 250 1
36 251 1
37 6 1
37 37 1
37 47 1
37 172 1
37 260 1
37 261 1
38 7 1
38 38 1
38 48 1
38 173 1
38 253 1
38 261 1
39 8 1
39 39 1
39 49 1
39 174 1
39 253 1
39 254 1
40 9 1
40 40 1
40 50 1
40 175 1
40 254 1
40 255 1
41 1 1
41 41 1
41 51 1
41 176 1
41 255 1
41 256 1
42 2 1
42 42 1
42 52 1
42 177 1
42 256 1
42 257 1
43 3 1
43 43 1
43 53 1
43 178 1
43 257 1
43 258 1
44 4 1
44 44 1
44 54 1
44 179 1
44 258 1
44 259 1
45 5 1
45 45 1
45 46 1
45 180 1
45 259 1
45 260 1
46 15 1
46 46 1
46 56 1
46 181 1
46 269 1
46 270 1
47 16 1
47 47 1
47 57 1
47 182 1
47 262 1
47 270 1
48 17 1
48 48 1
48 58 1
48 183 1
48 262 1
48 263 1
49 18 1
49 49 1
49 59 1
49 184 1
49 263 1
49 264 1
50 10 1
50 50 1
50 60 1
50 185 1
50 264 1
50 265 1
51 11 1
51 51 1
51 61 1
51 186 1
51 265 1
51 266 1
52 12 1
52 52 1
52 62 1
52 187 1
52 266 1
52 267 1
53 13 1
53 53 1
53 63 1
53 188 1
53 267 1
53 268 1
54 14 1
54 54 1
54 55 1
54 189 1
54 268 1
54 269 1
55 24 1
55 55 1
55 65 1
55 143 1
55 144 1
55 190 1
56 25 1
56 56 1
56 66 1
56 136 1
56 144 1
56 191 1
57 26 1
57 57 1
57 67 1
57 136 1
57 137 1
57 192 1
58 27 1
58 58 1
58 68 1
58 137 1
58 138 1
58 193 1
59 19 1
59 59 1
59 69 1
59 138 1
59 139 1
59 194 1
60 20 1
60 60 1
60 70 1
60 139 1
60 140 1
60 195 1
61 21 1
61 61 1
61 71 1
61 140 1
61 141 1
61 196 1
62 22 1
62 62 1
62 72 1
62 141 1
62 142 1
62 197 1
63 23 1
63 63 1
63 64 1
63 142 1
63 143 1
63 198 1
64 33 1
64 64 1
64 74 1
64 152 1
64 153 1
64 199 1
65 34 1
65 65 1
65 75 1
65 145 1
65 153 1
65 200 1
66 35 1
66 66 1
66 76 1
66 145 1
66 146 1
66 201 1
67 36 1
67 67 1
67 77 1
67 146 1
67 147 1
67 202 1
68 28 1
68 68 1
68 78 1
68 147 1
68 148 1
68 203 1
69 29 1
69 69 1
69 79 1
69 148 1
69 149 1
69 204 1
70 30 1
70 70 1
70 80 1
70 149 1
70 150 1
70 205 1
71 31 1
71 71 1
71 81 1
71 150 1
71 151 1
71 206 1
72 32 1
72 72 1
72 73 1
72 151 1
72 152 1
72 207 1
73 42 1
73 73 1
73 83 1
73 161 1
73 162 1
73 208 1
74 43 1
74 74 1
74 84 1
74 154 1
74 162 1
74 209 1
75 44 1
75 75 1
75 85 1
75 154 1
75 155 1
75 210 1
76 45 1
76 76 1
76 86 1
76 155 1
76 156 1
76 211 1
77 37 1
77 77 1
77 87 1
77 156 1
77 157 1
77 212 1
78 38 1
78 78 1
78 88 1
78 157 1
78 158 1
78 213 1
79 39 1
79 79 1
79 89 1
79 158 1
79 159 1
79 214 1
80 40 1
80 80 1
80 90 1
80 159 1
80 160 1
80 215 1
81 41 1
81 81 1
81 82 1
81 160 1
81 161 1
81 216 1
82 51 1
82 82 1
82 92 1
82 170 1
82 171 1
82 217 1
83 52 1
83 83 1
83 93 1
83 163 1
83 171 1
83 218 1
84 53 1
84 84 1
84 94 1
84 163 1
84 164 1
84 219 1
85 54 1
85 85 1
85 95 1
85 164 1
85 165 1
85 220 1
86 46 1
86 86 1
86 96 1
86 165 1
86 166 1
86 221 1
87 47 1
87 87 1
87 97 1
87 166 1
87 167 1
87 222 1
88 48 1
88 88 1
88 98 1
88 167 1
88 168 1
88 223 1
89 49 1
89 89 1
89 99 1
89 168 1
89 169 1
89 224 1
90 50 1
90 90 1
90 91 1
90 169 1
90 170 1
90 225 1
91 60 1
91 91 1
91 101 1
91 179 1
91 180 1
91 226 1
92 61 1
92 92 1
92 102 1
92 172 1
92 180 1
92 227 1
93 62 1
93 93 1
93 103 1
93 172 1
93 173 1
93 228 1
94 63 1
94 94 1
94 104 1
94 173 1
94 174 1
94 229 1
95 55 1
95 95 1
95 105 1
95 174 1
95 175 1
95 230 1
96 56 1
96 96 1
96 106 1
96 175 1
96 176 1
96 231 1
97 57 1
97 97 1
97 107 1
97 176 1
97 177 1
97 232 1
98 58 1
98 98 1
98 108 1
98 177 1
98 178 1
98 233 1
99 59 1
99 99 1
99 100 1
99 178 1
99 179 1
99 234 1
100 69 1
100 100 1
100 110 1
100 188 1
100 189 1
100 235 1
101 70 1
101 101 1
101 111 1
101 181 1
101 189 1
101 236 1
102 71 1
102 102 1
102 112 1
102 181 1
102 182 1
102 237 1
103 72 1
103 103 1
103 113 1
103 182 1
103 183 1
103 238 1
104 64 1
104 104 1
104 114 1
104 183 1
104 184 1
104 239 1
105 65 1
105 105 1
105 115 1
105 184 1
105 185 1
105 240 1
106 66 1
106 106 1
106 116 1
106 185 1
106 186 1
106 241 1
107 67 1
107 107 1
107 117 1
107 186 1
107 187 1
107 242 1
108 68 1
108 108 1
108 109 1
108 187 1
108 188 1
108 243 1
109 78 1
109 109 1
109 119 1
109 197 1
109 198 1
109 244 1
110 79 1
110 110 1
110 120 1
110 190 1
110 198 1
110 245 1
111 80 1
111 111 1
111 121 1
111 190 1
111 191 1
111 246 1
112 81 1
112 112 1
112 122 1
112 191 1
112 192 1
112 247 1
113 73 1
113 113 1
113 123 1
113 192 1
113 193 1
113 248 1
114 74 1
114 114 1
114 124 1
114 193 1
114 194 1
114 249 1
115 75 1
115 115 1
115 125 1
115 194 1
115 195 1
115 250 1
116 76 1
116 116 1
116 126 1
116 195 1
116 196 1
116 251 1
117 77 1
117 117 1
117 118 1
117 196 1
117 197 1
117 252 1
118 87 1
118 118 1
118 128 1
118 206 1
118 207 1
118 253 1
119 88 1
119 119 1
119 129 1
119 199 1
119 207 1
119 254 1
120 89 1
120 120 1
120 130 1
120 199 1
120 200 1
120 255 1
121 90 1
121 121 1
121 131 1
121 200 1
121 201 1
121 256 1
122 82 1
122 122 1
122 132 1
122 201 1
122 202 1
122 257 1
123 83 1
123 123 1
123 133 1
123 202 1
123 203 1
123 258 1
124 84 1
124 124 1
124 134 1
124 203 1
124 204 1
124 259 1
125 85 1
125 125 1
125 135 1
125 204 1
125 205 1
125 260 1
126 86 1
126 126 1
126 127 1
126 205 1
126 206 1
126 261 1
127 2 1
127 96 1
127 127 1
127 215 1
127 216 1
127 262 1
128 3 1
128 97 1
128 128 1
128 208 1
128 216 1
128 263 1
129 4 1
129 98 1
129 129 1
129 208 1
129 209 1
129 264 1
130 5 1
130 99 1
130 130 1
130 209 1
130 210 1
130 265 1
131 6 1
131 91 1
131 131 1
131 210 1
131 211 1
131 266 1
132 7 1
132 92 1
132 132 1
132 211 1
132 212 1
132 267 1
133 8 1
133 93 1
133 133 1
133 212 1
133 213 1
133 268 1
134 9 1
134 94 1
134 134 1
134 213 1
134 214 1
134 269 1
135 1 1
135 95 1
135 135 1
135 214 1
135 215 1
135 270 1
