%%MatrixMarket matrix coordinate integer general
%
8 270 208
1 142 1
1 148 1
1 154 1
1 157 1
1 169 1
1 172 1
1 175 1
1 178 1
1 181 1
1 187 1
1 190 1
1 202 1
1 208 1
1 214 1
1 217 1
1 220 1
1 223 1
1 226 1
1 235 1
1 238 1
1 244 1
1 253 1
2 143 1
2 149 1
2 155 1
2 158 1
2 170 1
2 173 1
2 176 1
2 179 1
2 182 1
2 188 1
2 191 1
2 203 1
2 209 1
2 215 1
2 218 1
2 221 1
2 224 1
2 227 1
2 236 1
2 239 1
2 245 1
2 254 1
3 142 1
3 148 1
3 151 1
3 154 1
3 163 1
3 166 1
3 169 1
3 172 1
3 175 1
3 184 1
3 196 1
3 199 1
3 202 1
3 208 1
3 211 1
3 214 1
3 220 1
3 229 1
3 232 1
3 238 1
3 247 1
3 262 1
4 143 1
4 149 1
4 152 1
4 155 1
4 164 1
4 167 1
4 170 1
4 173 1
4 176 1
4 185 1
4 197 1
4 200 1
4 203 1
4 209 1
4 212 1
4 215 1
4 221 1
4 230 1
4 233 1
4 239 1
4 248 1
4 263 1
5 1 1
5 2 1
5 4 1
5 5 1
5 7 1
5 8 1
5 136 1
5 137 1
5 139 1
5 140 1
5 142 1
5 143 1
5 145 1
5 146 1
5 148 1
5 149 1
5 151 1
5 152 1
5 163 1
5 164 1
5 166 1
5 167 1
5 169 1
5 170 1
5 172 1
5 173 1
5 175 1
5 176 1
5 178 1
5 179 1
6 1 1
6 3 1
6 4 1
6 6 1
6 7 1
6 9 1
6 136 1
6 138 1
6 139 1
6 141 1
6 142 1
6 144 1
6 145 1
6 147 1
6 148 1
6 150 1
6 151 1
6 153 1
6 163 1
6 165 1
6 166 1
6 168 1
6 169 1
6 171 1
6 172 1
6 174 1
6 175 1
6 177 1
6 178 1
6 180 1
7 10 1
7 11 1
7 13 1
7 14 1
7 16 1
7 17 1
7 145 1
7 146 1
7 148 1
7 149 1
7 151 1
7 152 1
7 154 1
7 155 1
7 157 1
7 158 1
7 160 1
7 161 1
7 172 1
7 173 1
7 175 1
7 176 1
7 178 1
7 179 1
7 181 1
7 182 1
7 184 1
7 185 1
7 187 1
7 188 1
8 10 1
8 12 1
8 13 1
8 15 1
8 16 1
8 18 1
8 145 1
8 147 1
8 148 1
8 150 1
8 151 1
8 153 1
8 154 1
8 156 1
8 157 1
8 159 1
8 160 1
8 162 1
8 172 1
8 174 1
8 175 1
8 177 1
8 178 1
8 180 1
8 181 1
8 183 1
8 184 1
8 186 1
8 187 1
8 189 1
