%%MatrixMarket matrix coordinate integer general
%
135 270 810
1 1 1
1 83 1
1 90 1
1 136 1
1 256 1
1 265 1
2 2 1
2 82 1
2 84 1
2 137 1
2 257 1
2 266 1
3 3 1
3 83 1
3 85 1
3 138 1
3 258 1
3 267 1
4 4 1
4 84 1
4 86 1
4 139 1
4 259 1
4 268 1
5 5 1
5 85 1
5 87 1
5 140 1
5 260 1
5 269 1
6 6 1
6 86 1
6 88 1
6 141 1
6 261 1
6 270 1
7 7 1
7 87 1
7 89 1
7 142 1
7 253 1
7 262 1
8 8 1
8 88 1
8 90 1
8 143 1
8 254 1
8 263 1
9 9 1
9 82 1
9 89 1
9 144 1
9 255 1
9 264 1
10 10 1
10 92 1
10 99 1
10 139 1
10 145 1
10 265 1
11 11 1
11 91 1
11 93 1
11 140 1
11 146 1
11 266 1
12 12 1
12 92 1
12 94 1
12 141 1
12 147 1
12 267 1
13 13 1
13 93 1
13 95 1
13 142 1
13 148 1
13 268 1
14 14 1
14 94 1
14 96 1
14 143 1
14 149 1
14 269 1
15 15 1
15 95 1
15 97 1
15 144 1
15 150 1
15 270 1
16 16 1
16 96 1
16 98 1
16 136 1
16 151 1
16 262 1
17 17 1
17 97 1
17 99 1
17 137 1
17 152 1
17 263 1
18 18 1
18 91 1
18 98 1
18 138 1
18 153 1
18 264 1
19 19 1
19 101 1
19 108 1
19 139 1
19 148 1
19 154 1
20 20 1
20 100 1
20 102 1
20 140 1
20 149 1
20 155 1
21 21 1
21 101 1
21 103 1
21 141 1
21 150 1
21 156 1
22 22 1
22 102 1
22 104 1
22 142 1
22 151 1
22 157 1
23 23 1
23 103 1
23 105 1
23 143 1
23 152 1
23 158 1
24 24 1
24 104 1
24 106 1
24 144 1
24 153 1
24 159 1
25 25 1
25 105 1
25 107 1
25 136 1
25 145 1
25 160 1
26 26 1
26 106 1
26 108 1
26 137 1
26 146 1
26 161 1
27 27 1
27 100 1
27 107 1
27 138 1
27 147 1
27 162 1
28 28 1
28 110 1
28 117 1
28 148 1
28 157 1
28 163 1
29 29 1
29 109 1
29 111 1
29 149 1
29 158 1
29 164 1
30 30 1
30 110 1
30 112 1
30 150 1
30 159 1
30 165 1
31 31 1
31 111 1
31 113 1
31 151 1
31 160 1
31 166 1
32 32 1
32 112 1
32 114 1
32 152 1
32 161 1
32 167 1
33 33 1
33 113 1
33 115 1
33 153 1
33 162 1
33 168 1
34 34 1
34 114 1
34 116 1
34 145 1
34 154 1
34 169 1
35 35 1
35 115 1
35 117 1
35 146 1
35 155 1
35 170 1
36 36 1
36 109 1
36 116 1
36 147 1
36 156 1
36 171 1
37 37 1
37 119 1
37 126 1
37 157 1
37 166 1
37 172 1
38 38 1
38 118 1
38 120 1
38 158 1
38 167 1
38 173 1
39 39 1
39 119 1
39 121 1
39 159 1
39 168 1
39 174 1
40 40 1
40 120 1
40 122 1
40 160 1
40 169 1
40 175 1
41 41 1
41 121 1
41 123 1
41 161 1
41 170 1
41 176 1
42 42 1
42 122 1
42 124 1
42 162 1
42 171 1
42 177 1
43 43 1
43 123 1
43 125 1
43 154 1
43 163 1
43 178 1
44 44 1
44 124 1
44 126 1
44 155 1
44 164 1
44 179 1
45 45 1
45 118 1
45 125 1
45 156 1
45 165 1
45 180 1
46 46 1
46 128 1
46 135 1
46 166 1
46 175 1
46 181 1
47 47 1
47 127 1
47 129 1
47 167 1
47 176 1
47 182 1
48 48 1
48 128 1
48 130 1
48 168 1
48 177 1
48 183 1
49 49 1
49 129 1
49 131 1
49 169 1
49 178 1
49 184 1
50 50 1
50 130 1
50 132 1
50 170 1
50 179 1
50 185 1
51 51 1
51 131 1
51 133 1
51 171 1
51 180 1
51 186 1
52 52 1
52 132 1
52 134 1
52 163 1
52 172 1
52 187 1
53 53 1
53 133 1
53 135 1
53 164 1
53 173 1
53 188 1
54 54 1
54 127 1
54 134 1
54 165 1
54 174 1
54 189 1
55 2 1
55 9 1
55 55 1
55 175 1
55 184 1
55 190 1
56 1 1
56 3 1
56 56 1
56 176 1
56 185 1
56 191 1
57 2 1
57 4 1
57 57 1
57 177 1
57 186 1
57 192 1
58 3 1
58 5 1
58 58 1
58 178 1
58 187 1
58 193 1
59 4 1
59 6 1
59 59 1
59 179 1
59 188 1
59 194 1
60 5 1
60 7 1
60 60 1
60 180 1
60 189 1
60 195 1
61 6 1
61 8 1
61 61 1
61 172 1
61 181 1
61 196 1
62 7 1
62 9 1
62 62 1
62 173 1
62 182 1
62 197 1
63 1 1
63 8 1
63 63 1
63 174 1
63 183 1
63 198 1
64 11 1
64 18 1
64 64 1
64 184 1
64 193 1
64 199 1
65 10 1
65 12 1
65 65 1
65 185 1
65 194 1
65 200 1
66 11 1
66 13 1
66 66 1
66 186 1
66 195 1
66 201 1
67 12 1
67 14 1
67 67 1
67 187 1
67 196 1
67 202 1
68 13 1
68 15 1
68 68 1
68 188 1
68 197 1
68 203 1
69 14 1
69 16 1
69 69 1
69 189 1
69 198 1
69 204 1
70 15 1
70 17 1
70 70 1
70 181 1
70 190 1
70 205 1
71 16 1
71 18 1
71 71 1
71 182 1
71 191 1
71 206 1
72 10 1
72 17 1
72 72 1
72 183 1
72 192 1
72 207 1
73 20 1
73 27 1
73 73 1
73 193 1
73 202 1
73 208 1
74 19 1
74 21 1
74 74 1
74 194 1
74 203 1
74 209 1
75 20 1
75 22 1
75 75 1
75 195 1
75 204 1
75 210 1
76 21 1
76 23 1
76 76 1
76 196 1
76 205 1
76 211 1
77 22 1
77 24 1
77 77 1
77 197 1
77 206 1
77 212 1
78 23 1
78 25 1
78 78 1
78 198 1
78 207 1
78 213 1
79 24 1
79 26 1
79 79 1
79 190 1
79 199 1
79 214 1
80 25 1
80 27 1
80 80 1
80 191 1
80 200 1
80 215 1
81 19 1
81 26 1
81 81 1
81 192 1
81 201 1
81 216 1
82 29 1
82 36 1
82 82 1
82 202 1
82 211 1
82 217 1
83 28 1
83 30 1
83 83 1
83 203 1
83 212 1
83 218 1
84 29 1
84 31 1
84 84 1
84 204 1
84 213 1
84 219 1
85 30 1
85 32 1
85 85 1
85 205 1
85 214 1
85 220 1
86 31 1
86 33 1
86 86 1
86 206 1
86 215 1
86 221 1
87 32 1
87 34 1
87 87 1
87 207 1
87 216 1
87 222 1
88 33 1
88 35 1
88 88 1
88 199 1
88 208 1
88 223 1
89 34 1
89 36 1
89 89 1
89 200 1
89 209 1
89 224 1
90 28 1
90 35 1
90 90 1
90 201 1
90 210 1
90 225 1
91 38 1
91 45 1
91 91 1
91 211 1
91 220 1
91 226 1
92 37 1
92 39 1
92 92 1
92 212 1
92 221 1
92 227 1
93 38 1
93 40 1
93 93 1
93 213 1
93 222 1
93 228 1
94 39 1
94 41 1
94 94 1
94 214 1
94 223 1
94 229 1
95 40 1
95 42 1
95 95 1
95 215 1
95 224 1
95 230 1
96 41 1
96 43 1
96 96 1
96 216 1
96 225 1
96 231 1
97 42 1
97 44 1
97 97 1
97 208 1
97 217 1
97 232 1
98 43 1
98 45 1
98 98 1
98 209 1
98 218 1
98 233 1
99 37 1
99 44 1
99 99 1
99 210 1
99 219 1
99 234 1
100 47 1
100 54 1
100 100 1
100 220 1
100 229 1
100 235 1
101 46 1
101 48 1
101 101 1
101 221 1
101 230 1
101 236 1
102 47 1
102 49 1
102 102 1
102 222 1
102 231 1
102 237 1
103 48 1
103 50 1
103 103 1
103 223 1
103 232 1
103 238 1
104 49 1
104 51 1
104 104 1
104 224 1
104 233 1
104 239 1
105 50 1
105 52 1
105 105 1
105 225 1
105 234 1
105 240 1
106 51 1
106 53 1
106 106 1
106 217 1
106 226 1
106 241 1
107 52 1
107 54 1
107 107 1
107 218 1
107 227 1
107 242 1
108 46 1
108 53 1
108 108 1
108 219 1
108 228 1
108 243 1
109 56 1
109 63 1
109 109 1
109 229 1
109 238 1
109 244 1
110 55 1
110 57 1
110 110 1
110 230 1
110 239 1
110 245 1
111 56 1
111 58 1
111 111 1
111 231 1
111 240 1
111 246 1
112 57 1
112 59 1
112 112 1
112 232 1
112 241 1
112 247 1
113 58 1
113 60 1
113 113 1
113 233 1
113 242 1
113 248 1
114 59 1
114 61 1
114 114 1
114 234 1
114 243 1
114 249 1
115 60 1
115 62 1
115 115 1
115 226 1
115 235 1
115 250 1
116 61 1
116 63 1
116 116 1
116 227 1
116 236 1
116 251 1
117 55 1
117 62 1
117 117 1
117 228 1
117 237 1
117 252 1
118 65 1
118 72 1
118 118 1
118 238 1
118 247 1
118 253 1
119 64 1
119 66 1
119 119 1
119 239 1
119 248 1
119 254 1
120 65 1
120 67 1
120 120 1
120 240 1
120 249 1
120 255 1
121 66 1
121 68 1
121 121 1
121 241 1
121 250 1
121 256 1
122 67 1
122 69 1
122 122 1
122 242 1
122 251 1
122 257 1
123 68 1
123 70 1
123 123 1
123 243 1
123 252 1
123 258 1
124 69 1
124 71 1
124 124 1
124 235 1
124 244 1
124 259 1
125 70 1
125 72 1
125 125 1
125 236 1
125 245 1
125 260 1
126 64 1
126 71 1
126 126 1
126 237 1
126 246 1
126 261 1
127 74 1
127 81 1
127 127 1
127 247 1
127 256 1
127 262 1
128 73 1
128 75 1
128 128 1
128 248 1
128 257 1
128 263 1
129 74 1
129 76 1
129 129 1
129 249 1
129 258 1
129 264 1
130 75 1
130 77 1
130 130 1
130 250 1
130 259 1
130 265 1
131 76 1
131 78 1
131 131 1
131 251 1
131 260 1
131 266 1
132 77 1
132 79 1
132 132 1
132 252 1
132 261 1
132 267 1
133 78 1
133 80 1
133 133 1
133 244 1
133 253 1
133 268 1
134 79 1
134 81 1
134 134 1
134 245 1
134 254 1
134 269 1
135 73 1
135 80 1
135 135 1
135 246 1
135 255 1
135 270 1
