%%MatrixMarket matrix coordinate integer general
%
135 270 810
1 1 1
1 89 1
1 90 1
1 136 1
1 146 1
1 240 1
2 2 1
2 82 1
2 90 1
2 137 1
2 147 1
2 241 1
3 3 1
3 82 1
3 83 1
3 138 1
3 148 1
3 242 1
4 4 1
4 83 1
4 84 1
4 139 1
4 149 1
4 243 1
5 5 1
5 84 1
5 85 1
5 140 1
5 150 1
5 235 1
6 6 1
6 85 1
6 86 1
6 141 1
6 151 1
6 236 1
7 7 1
7 86 1
7 87 1
7 142 1
7 152 1
7 237 1
8 8 1
8 87 1
8 88 1
8 143 1
8 153 1
8 238 1
9 9 1
9 88 1
9 89 1
9 144 1
9 145 1
9 239 1
10 10 1
10 98 1
10 99 1
10 145 1
10 155 1
10 249 1
11 11 1
11 91 1
11 99 1
11 146 1
11 156 1
11 250 1
12 12 1
12 91 1
12 92 1
12 147 1
12 157 1
12 251 1
13 13 1
13 92 1
13 93 1
13 148 1
13 158 1
13 252 1
14 14 1
14 93 1
14 94 1
14 149 1
14 159 1
14 244 1
15 15 1
15 94 1
15 95 1
15 150 1
15 160 1
15 245 1
16 16 1
16 95 1
16 96 1
16 151 1
16 161 1
16 246 1
17 17 1
17 96 1
17 97 1
17 152 1
17 162 1
17 247 1
18 18 1
18 97 1
18 98 1
18 153 1
18 154 1
18 248 1
19 19 1
19 107 1
19 108 1
19 154 1
19 164 1
19 258 1
20 20 1
20 100 1
20 108 1
20 155 1
20 165 1
20 259 1
21 21 1
21 100 1
21 101 1
21 156 1
21 166 1
21 260 1
22 22 1
22 101 1
22 102 1
22 157 1
22 167 1
22 261 1
23 23 1
23 102 1
23 103 1
23 158 1
23 168 1
23 253 1
24 24 1
24 103 1
24 104 1
24 159 1
24 169 1
24 254 1
25 25 1
25 104 1
25 105 1
25 160 1
25 170 1
25 255 1
26 26 1
26 105 1
26 106 1
26 161 1
26 171 1
26 256 1
27 27 1
27 106 1
27 107 1
27 162 1
27 163 1
27 257 1
28 28 1
28 116 1
28 117 1
28 163 1
28 173 1
28 267 1
29 29 1
29 109 1
29 117 1
29 164 1
29 174 1
29 268 1
30 30 1
30 109 1
30 110 1
30 165 1
30 175 1
30 269 1
31 31 1
31 110 1
31 111 1
31 166 1
31 176 1
31 270 1
32 32 1
32 111 1
32 112 1
32 167 1
32 177 1
32 262 1
33 33 1
33 112 1
33 113 1
33 168 1
33 178 1
33 263 1
34 34 1
34 113 1
34 114 1
34 169 1
34 179 1
34 264 1
35 35 1
35 114 1
35 115 1
35 170 1
35 180 1
35 265 1
36 36 1
36 115 1
36 116 1
36 171 1
36 172 1
36 266 1
37 37 1
37 125 1
37 126 1
37 141 1
37 172 1
37 182 1
38 38 1
38 118 1
38 126 1
38 142 1
38 173 1
38 183 1
39 39 1
39 118 1
39 119 1
39 143 1
39 174 1
39 184 1
40 40 1
40 119 1
40 120 1
40 144 1
40 175 1
40 185 1
41 41 1
41 120 1
41 121 1
41 136 1
41 176 1
41 186 1
42 42 1
42 121 1
42 122 1
42 137 1
42 177 1
42 187 1
43 43 1
43 122 1
43 123 1
43 138 1
43 178 1
43 188 1
44 44 1
44 123 1
44 124 1
44 139 1
44 179 1
44 189 1
45 45 1
45 124 1
45 125 1
45 140 1
45 180 1
45 181 1
46 46 1
46 134 1
46 135 1
46 150 1
46 181 1
46 191 1
47 47 1
47 127 1
47 135 1
47 151 1
47 182 1
47 192 1
48 48 1
48 127 1
48 128 1
48 152 1
48 183 1
48 193 1
49 49 1
49 128 1
49 129 1
49 153 1
49 184 1
49 194 1
50 50 1
50 129 1
50 130 1
50 145 1
50 185 1
50 195 1
51 51 1
51 130 1
51 131 1
51 146 1
51 186 1
51 196 1
52 52 1
52 131 1
52 132 1
52 147 1
52 187 1
52 197 1
53 53 1
53 132 1
53 133 1
53 148 1
53 188 1
53 198 1
54 54 1
54 133 1
54 134 1
54 149 1
54 189 1
54 190 1
55 8 1
55 9 1
55 55 1
55 159 1
55 190 1
55 200 1
56 1 1
56 9 1
56 56 1
56 160 1
56 191 1
56 201 1
57 1 1
57 2 1
57 57 1
57 161 1
57 192 1
57 202 1
58 2 1
58 3 1
58 58 1
58 162 1
58 193 1
58 203 1
59 3 1
59 4 1
59 59 1
59 154 1
59 194 1
59 204 1
60 4 1
60 5 1
60 60 1
60 155 1
60 195 1
60 205 1
61 5 1
61 6 1
61 61 1
61 156 1
61 196 1
61 206 1
62 6 1
62 7 1
62 62 1
62 157 1
62 197 1
62 207 1
63 7 1
63 8 1
63 63 1
63 158 1
63 198 1
63 199 1
64 17 1
64 18 1
64 64 1
64 168 1
64 199 1
64 209 1
65 10 1
65 18 1
65 65 1
65 169 1
65 200 1
65 210 1
66 10 1
66 11 1
66 66 1
66 170 1
66 201 1
66 211 1
67 11 1
67 12 1
67 67 1
67 171 1
67 202 1
67 212 1
68 12 1
68 13 1
68 68 1
68 163 1
68 203 1
68 213 1
69 13 1
69 14 1
69 69 1
69 164 1
69 204 1
69 214 1
70 14 1
70 15 1
70 70 1
70 165 1
70 205 1
70 215 1
71 15 1
71 16 1
71 71 1
71 166 1
71 206 1
71 216 1
72 16 1
72 17 1
72 72 1
72 167 1
72 207 1
72 208 1
73 26 1
73 27 1
73 73 1
73 177 1
73 208 1
73 218 1
74 19 1
74 27 1
74 74 1
74 178 1
74 209 1
74 219 1
75 19 1
75 20 1
75 75 1
75 179 1
75 210 1
75 220 1
76 20 1
76 21 1
76 76 1
76 180 1
76 211 1
76 221 1
77 21 1
77 22 1
77 77 1
77 172 1
77 212 1
77 222 1
78 22 1
78 23 1
78 78 1
78 173 1
78 213 1
78 223 1
79 23 1
79 24 1
79 79 1
79 174 1
79 214 1
79 224 1
80 24 1
80 25 1
80 80 1
80 175 1
80 215 1
80 225 1
81 25 1
81 26 1
81 81 1
81 176 1
81 216 1
81 217 1
82 35 1
82 36 1
82 82 1
82 186 1
82 217 1
82 227 1
83 28 1
83 36 1
83 83 1
83 187 1
83 218 1
83 228 1
84 28 1
84 29 1
84 84 1
84 188 1
84 219 1
84 229 1
85 29 1
85 30 1
85 85 1
85 189 1
85 220 1
85 230 1
86 30 1
86 31 1
86 86 1
86 181 1
86 221 1
86 231 1
87 31 1
87 32 1
87 87 1
87 182 1
87 222 1
87 232 1
88 32 1
88 33 1
88 88 1
88 183 1
88 223 1
88 233 1
89 33 1
89 34 1
89 89 1
89 184 1
89 224 1
89 234 1
90 34 1
90 35 1
90 90 1
90 185 1
90 225 1
90 226 1
91 44 1
91 45 1
91 91 1
91 195 1
91 226 1
91 236 1
92 37 1
92 45 1
92 92 1
92 196 1
92 227 1
92 237 1
93 37 1
93 38 1
93 93 1
93 197 1
93 228 1
93 238 1
94 38 1
94 39 1
94 94 1
94 198 1
94 229 1
94 239 1
95 39 1
95 40 1
95 95 1
95 190 1
95 230 1
95 240 1
96 40 1
96 41 1
96 96 1
96 191 1
96 231 1
96 241 1
97 41 1
97 42 1
97 97 1
97 192 1
97 232 1
97 242 1
98 42 1
98 43 1
98 98 1
98 193 1
98 233 1
98 243 1
99 43 1
99 44 1
99 99 1
99 194 1
99 234 1
99 235 1
100 53 1
100 54 1
100 100 1
100 204 1
100 235 1
100 245 1
101 46 1
101 54 1
101 101 1
101 205 1
101 236 1
101 246 1
102 46 1
102 47 1
102 102 1
102 206 1
102 237 1
102 247 1
103 47 1
103 48 1
103 103 1
103 207 1
103 238 1
103 248 1
104 48 1
104 49 1
104 104 1
104 199 1
104 239 1
104 249 1
105 49 1
105 50 1
105 105 1
105 200 1
105 240 1
105 250 1
106 50 1
106 51 1
106 106 1
106 201 1
106 241 1
106 251 1
107 51 1
107 52 1
107 107 1
107 202 1
107 242 1
107 252 1
108 52 1
108 53 1
108 108 1
108 203 1
108 243 1
108 244 1
109 62 1
109 63 1
109 109 1
109 213 1
109 244 1
109 254 1
110 55 1
110 63 1
110 110 1
110 214 1
110 245 1
110 255 1
111 55 1
111 56 1
111 111 1
111 215 1
111 246 1
111 256 1
112 56 1
112 57 1
112 112 1
112 216 1
112 247 1
112 257 1
113 57 1
113 58 1
113 113 1
113 208 1
113 248 1
113 258 1
114 58 1
114 59 1
114 114 1
114 209 1
114 249 1
114 259 1
115 59 1
115 60 1
115 115 1
115 210 1
115 250 1
115 260 1
116 60 1
116 61 1
116 116 1
116 211 1
116 251 1
116 261 1
117 61 1
117 62 1
117 117 1
117 212 1
117 252 1
117 253 1
118 71 1
118 72 1
118 118 1
118 222 1
118 253 1
118 263 1
119 64 1
119 72 1
119 119 1
119 223 1
119 254 1
119 264 1
120 64 1
120 65 1
120 120 1
120 224 1
120 255 1
120 265 1
121 65 1
121 66 1
121 121 1
121 225 1
121 256 1
121 266 1
122 66 1
122 67 1
122 122 1
122 217 1
122 257 1
122 267 1
123 67 1
123 68 1
123 123 1
123 218 1
123 258 1
123 268 1
124 68 1
124 69 1
124 124 1
124 219 1
124 259 1
124 269 1
125 69 1
125 70 1
125 125 1
125 220 1
125 260 1
125 270 1
126 70 1
126 71 1
126 126 1
126 221 1
126 261 1
126 262 1
127 80 1
127 81 1
127 127 1
127 137 1
127 231 1
127 262 1
128 73 1
128 81 1
128 128 1
128 138 1
128 232 1
128 263 1
129 73 1
129 74 1
129 129 1
129 139 1
129 233 1
129 264 1
130 74 1
130 75 1
130 130 1
130 140 1
130 234 1
130 265 1
131 75 1
131 76 1
131 131 1
131 141 1
131 226 1
131 266 1
132 76 1
132 77 1
132 132 1
132 142 1
132 227 1
132 267 1
133 77 1
133 78 1
133 133 1
133 143 1
133 228 1
133 268 1
134 78 1
134 79 1
134 134 1
134 144 1
134 229 1
134 269 1
135 79 1
135 80 1
135 135 1
135 136 1
135 230 1
135 270 1
