%%MatrixMarket matrix coordinate integer general
%
135 270 810
1 1 1
1 16 1
1 25 1
1 136 1
1 191 1
1 198 1
2 2 1
2 17 1
2 26 1
2 137 1
2 190 1
2 192 1
3 3 1
3 18 1
3 27 1
3 138 1
3 191 1
3 193 1
4 4 1
4 10 1
4 19 1
4 139 1
4 192 1
4 194 1
5 5 1
5 11 1
5 20 1
5 140 1
5 193 1
5 195 1
6 6 1
6 12 1
6 21 1
6 141 1
6 194 1
6 196 1
7 7 1
7 13 1
7 22 1
7 142 1
7 195 1
7 197 1
8 8 1
8 14 1
8 23 1
8 143 1
8 196 1
8 198 1
9 9 1
9 15 1
9 24 1
9 144 1
9 190 1
9 197 1
10 10 1
10 25 1
10 34 1
10 145 1
10 200 1
10 207 1
11 11 1
11 26 1
11 35 1
11 146 1
11 199 1
11 201 1
12 12 1
12 27 1
12 36 1
12 147 1
12 200 1
12 202 1
13 13 1
13 19 1
13 28 1
13 148 1
13 201 1
13 203 1
14 14 1
14 20 1
14 29 1
14 149 1
14 202 1
14 204 1
15 15 1
15 21 1
15 30 1
15 150 1
15 203 1
15 205 1
16 16 1
16 22 1
16 31 1
16 151 1
16 204 1
16 206 1
17 17 1
17 23 1
17 32 1
17 152 1
17 205 1
17 207 1
18 18 1
18 24 1
18 33 1
18 153 1
18 199 1
18 206 1
19 19 1
19 34 1
19 43 1
19 154 1
19 209 1
19 216 1
20 20 1
20 35 1
20 44 1
20 155 1
20 208 1
20 210 1
21 21 1
21 36 1
21 45 1
21 156 1
21 209 1
21 211 1
22 22 1
22 28 1
22 37 1
22 157 1
22 210 1
22 212 1
23 23 1
23 29 1
23 38 1
23 158 1
23 211 1
23 213 1
24 24 1
24 30 1
24 39 1
24 159 1
24 212 1
24 214 1
25 25 1
25 31 1
25 40 1
25 160 1
25 213 1
25 215 1
26 26 1
26 32 1
26 41 1
26 161 1
26 214 1
26 216 1
27 27 1
27 33 1
27 42 1
27 162 1
27 208 1
27 215 1
28 28 1
28 43 1
28 52 1
28 163 1
28 218 1
28 225 1
29 29 1
29 44 1
29 53 1
29 164 1
29 217 1
29 219 1
30 30 1
30 45 1
30 54 1
30 165 1
30 218 1
30 220 1
31 31 1
31 37 1
31 46 1
31 166 1
31 219 1
31 221 1
32 32 1
32 38 1
32 47 1
32 167 1
32 220 1
32 222 1
33 33 1
33 39 1
33 48 1
33 168 1
33 221 1
33 223 1
34 34 1
34 40 1
34 49 1
34 169 1
34 222 1
34 224 1
35 35 1
35 41 1
35 50 1
35 170 1
35 223 1
35 225 1
36 36 1
36 42 1
36 51 1
36 171 1
36 217 1
36 224 1
37 37 1
37 52 1
37 61 1
37 172 1
37 227 1
37 234 1
38 38 1
38 53 1
38 62 1
38 173 1
38 226 1
38 228 1
39 39 1
39 54 1
39 63 1
39 174 1
39 227 1
39 229 1
40 40 1
40 46 1
40 55 1
40 175 1
40 228 1
40 230 1
41 41 1
41 47 1
41 56 1
41 176 1
41 229 1
41 231 1
42 42 1
42 48 1
42 57 1
42 177 1
42 230 1
42 232 1
43 43 1
43 49 1
43 58 1
43 178 1
43 231 1
43 233 1
44 44 1
44 50 1
44 59 1
44 179 1
44 232 1
44 234 1
45 45 1
45 51 1
45 60 1
45 180 1
45 226 1
45 233 1
46 46 1
46 61 1
46 70 1
46 181 1
46 236 1
46 243 1
47 47 1
47 62 1
47 71 1
47 182 1
47 235 1
47 237 1
48 48 1
48 63 1
48 72 1
48 183 1
48 236 1
48 238 1
49 49 1
49 55 1
49 64 1
49 184 1
49 237 1
49 239 1
50 50 1
50 56 1
50 65 1
50 185 1
50 238 1
50 240 1
51 51 1
51 57 1
51 66 1
51 186 1
51 239 1
51 241 1
52 52 1
52 58 1
52 67 1
52 187 1
52 240 1
52 242 1
53 53 1
53 59 1
53 68 1
53 188 1
53 241 1
53 243 1
54 54 1
54 60 1
54 69 1
54 189 1
54 235 1
54 242 1
55 55 1
55 70 1
55 79 1
55 190 1
55 245 1
55 252 1
56 56 1
56 71 1
56 80 1
56 191 1
56 244 1
56 246 1
57 57 1
57 72 1
57 81 1
57 192 1
57 245 1
57 247 1
58 58 1
58 64 1
58 73 1
58 193 1
58 246 1
58 248 1
59 59 1
59 65 1
59 74 1
59 194 1
59 247 1
59 249 1
60 60 1
60 66 1
60 75 1
60 195 1
60 248 1
60 250 1
61 61 1
61 67 1
61 76 1
61 196 1
61 249 1
61 251 1
62 62 1
62 68 1
62 77 1
62 197 1
62 250 1
62 252 1
63 63 1
63 69 1
63 78 1
63 198 1
63 244 1
63 251 1
64 64 1
64 79 1
64 88 1
64 199 1
64 254 1
64 261 1
65 65 1
65 80 1
65 89 1
65 200 1
65 253 1
65 255 1
66 66 1
66 81 1
66 90 1
66 201 1
66 254 1
66 256 1
67 67 1
67 73 1
67 82 1
67 202 1
67 255 1
67 257 1
68 68 1
68 74 1
68 83 1
68 203 1
68 256 1
68 258 1
69 69 1
69 75 1
69 84 1
69 204 1
69 257 1
69 259 1
70 70 1
70 76 1
70 85 1
70 205 1
70 258 1
70 260 1
71 71 1
71 77 1
71 86 1
71 206 1
71 259 1
71 261 1
72 72 1
72 78 1
72 87 1
72 207 1
72 253 1
72 260 1
73 73 1
73 88 1
73 97 1
73 208 1
73 263 1
73 270 1
74 74 1
74 89 1
74 98 1
74 209 1
74 262 1
74 264 1
75 75 1
75 90 1
75 99 1
75 210 1
75 263 1
75 265 1
76 76 1
76 82 1
76 91 1
76 211 1
76 264 1
76 266 1
77 77 1
77 83 1
77 92 1
77 212 1
77 265 1
77 267 1
78 78 1
78 84 1
78 93 1
78 213 1
78 266 1
78 268 1
79 79 1
79 85 1
79 94 1
79 214 1
79 267 1
79 269 1
80 80 1
80 86 1
80 95 1
80 215 1
80 268 1
80 270 1
81 81 1
81 87 1
81 96 1
81 216 1
81 262 1
81 269 1
82 82 1
82 97 1
82 106 1
82 137 1
82 144 1
82 217 1
83 83 1
83 98 1
83 107 1
83 136 1
83 138 1
83 218 1
84 84 1
84 99 1
84 108 1
84 137 1
84 139 1
84 219 1
85 85 1
85 91 1
85 100 1
85 138 1
85 140 1
85 220 1
86 86 1
86 92 1
86 101 1
86 139 1
86 141 1
86 221 1
87 87 1
87 93 1
87 102 1
87 140 1
87 142 1
87 222 1
88 88 1
88 94 1
88 103 1
88 141 1
88 143 1
88 223 1
89 89 1
89 95 1
89 104 1
89 142 1
89 144 1
89 224 1
90 90 1
90 96 1
90 105 1
90 136 1
90 143 1
90 225 1
91 91 1
91 106 1
91 115 1
91 146 1
91 153 1
91 226 1
92 92 1
92 107 1
92 116 1
92 145 1
92 147 1
92 227 1
93 93 1
93 108 1
93 117 1
93 146 1
93 148 1
93 228 1
94 94 1
94 100 1
94 109 1
94 147 1
94 149 1
94 229 1
95 95 1
95 101 1
95 110 1
95 148 1
95 150 1
95 230 1
96 96 1
96 102 1
96 111 1
96 149 1
96 151 1
96 231 1
97 97 1
97 103 1
97 112 1
97 150 1
97 152 1
97 232 1
98 98 1
98 104 1
98 113 1
98 151 1
98 153 1
98 233 1
99 99 1
99 105 1
99 114 1
99 145 1
99 152 1
99 234 1
100 100 1
100 115 1
100 124 1
100 155 1
100 162 1
100 235 1
101 101 1
101 116 1
101 125 1
101 154 1
101 156 1
101 236 1
102 102 1
102 117 1
102 126 1
102 155 1
102 157 1
102 237 1
103 103 1
103 109 1
103 118 1
103 156 1
103 158 1
103 238 1
104 104 1
104 110 1
104 119 1
104 157 1
104 159 1
104 239 1
105 105 1
105 111 1
105 120 1
105 158 1
105 160 1
105 240 1
106 106 1
106 112 1
106 121 1
106 159 1
106 161 1
106 241 1
107 107 1
107 113 1
107 122 1
107 160 1
107 162 1
107 242 1
108 108 1
108 114 1
108 123 1
108 154 1
108 161 1
108 243 1
109 109 1
109 124 1
109 133 1
109 164 1
109 171 1
109 244 1
110 110 1
110 125 1
110 134 1
110 163 1
110 165 1
110 245 1
111 111 1
111 126 1
111 135 1
111 164 1
111 166 1
111 246 1
112 112 1
112 118 1
112 127 1
112 165 1
112 167 1
112 247 1
113 113 1
113 119 1
113 128 1
113 166 1
113 168 1
113 248 1
114 114 1
114 120 1
114 129 1
114 167 1
114 169 1
114 249 1
115 115 1
115 121 1
115 130 1
115 168 1
115 170 1
115 250 1
116 116 1
116 122 1
116 131 1
116 169 1
116 171 1
116 251 1
117 117 1
117 123 1
117 132 1
117 163 1
117 170 1
117 252 1
118 7 1
118 118 1
118 133 1
118 173 1
118 180 1
118 253 1
119 8 1
119 119 1
119 134 1
119 172 1
119 174 1
119 254 1
120 9 1
120 120 1
120 135 1
120 173 1
120 175 1
120 255 1
121 1 1
121 121 1
121 127 1
121 174 1
121 176 1
121 256 1
122 2 1
122 122 1
122 128 1
122 175 1
122 177 1
122 257 1
123 3 1
123 123 1
123 129 1
123 176 1
123 178 1
123 258 1
124 4 1
124 124 1
124 130 1
124 177 1
124 179 1
124 259 1
125 5 1
125 125 1
125 131 1
125 178 1
125 180 1
125 260 1
126 6 1
126 126 1
126 132 1
126 172 1
126 179 1
126 261 1
127 7 1
127 16 1
127 127 1
127 182 1
127 189 1
127 262 1
128 8 1
128 17 1
128 128 1
128 181 1
128 183 1
128 263 1
129 9 1
129 18 1
129 129 1
129 182 1
129 184 1
129 264 1
130 1 1
130 10 1
130 130 1
130 183 1
130 185 1
130 265 1
131 2 1
131 11 1
131 131 1
131 184 1
131 186 1
131 266 1
132 3 1
132 12 1
132 132 1
132 185 1
132 187 1
132 267 1
133 4 1
133 13 1
133 133 1
133 186 1
133 188 1
133 268 1
134 5 1
134 14 1
134 134 1
134 187 1
134 189 1
134 269 1
135 6 1
135 15 1
135 135 1
135 181 1
135 188 1
135 270 1
