%%MatrixMarket matrix coordinate integer general
%
8 270 304
1 138 1
1 141 1
1 144 1
1 145 1
1 148 1
1 151 1
1 165 1
1 168 1
1 171 1
1 172 1
1 175 1
1 178 1
1 192 1
1 195 1
1 198 1
1 199 1
1 202 1
1 205 1
1 219 1
1 222 1
1 225 1
1 226 1
1 229 1
1 232 1
1 246 1
1 249 1
1 252 1
1 253 1
1 256 1
1 259 1
2 136 1
2 139 1
2 142 1
2 146 1
2 149 1
2 152 1
2 163 1
2 166 1
2 169 1
2 173 1
2 176 1
2 179 1
2 190 1
2 193 1
2 196 1
2 200 1
2 203 1
2 206 1
2 217 1
2 220 1
2 223 1
2 227 1
2 230 1
2 233 1
2 244 1
2 247 1
2 250 1
2 254 1
2 257 1
2 260 1
3 137 1
3 140 1
3 143 1
3 154 1
3 157 1
3 160 1
3 164 1
3 167 1
3 170 1
3 181 1
3 184 1
3 187 1
3 191 1
3 194 1
3 197 1
3 208 1
3 211 1
3 214 1
3 218 1
3 221 1
3 224 1
3 235 1
3 238 1
3 241 1
3 245 1
3 248 1
3 251 1
3 262 1
3 265 1
3 268 1
4 138 1
4 141 1
4 144 1
4 155 1
4 158 1
4 161 1
4 165 1
4 168 1
4 171 1
4 182 1
4 185 1
4 188 1
4 192 1
4 195 1
4 198 1
4 209 1
4 212 1
4 215 1
4 219 1
4 222 1
4 225 1
4 236 1
4 239 1
4 242 1
4 246 1
4 249 1
4 252 1
4 263 1
4 266 1
4 269 1
5 1 1
5 2 1
5 140 1
5 143 1
5 146 1
5 147 1
5 150 1
5 153 1
5 154 1
5 156 1
5 157 1
5 162 1
5 166 1
5 167 1
5 176 1
5 180 1
5 184 1
5 186 1
5 191 1
5 197 1
5 204 1
5 206 1
5 208 1
5 214 1
5 217 1
5 218 1
5 221 1
5 224 1
5 228 1
5 231 1
5 245 1
5 247 1
5 257 1
5 258 1
5 262 1
5 265 1
6 1 1
6 3 1
6 138 1
6 140 1
6 143 1
6 146 1
6 150 1
6 153 1
6 155 1
6 156 1
6 158 1
6 162 1
6 165 1
6 166 1
6 171 1
6 175 1
6 176 1
6 177 1
6 178 1
6 180 1
6 184 1
6 185 1
6 186 1
6 187 1
6 191 1
6 195 1
6 197 1
6 199 1
6 202 1
6 204 1
6 206 1
6 207 1
6 208 1
6 209 1
6 214 1
6 215 1
6 217 1
6 221 1
6 224 1
6 226 1
6 228 1
6 231 1
6 245 1
6 247 1
6 248 1
6 249 1
6 252 1
6 253 1
6 256 1
6 257 1
6 262 1
6 263 1
6 265 1
6 266 1
7 10 1
7 11 1
7 136 1
7 139 1
7 149 1
7 152 1
7 155 1
7 156 1
7 159 1
7 162 1
7 163 1
7 165 1
7 166 1
7 171 1
7 175 1
7 176 1
7 185 1
7 189 1
7 193 1
7 195 1
7 200 1
7 206 1
7 213 1
7 215 1
7 217 1
7 223 1
7 226 1
7 227 1
7 230 1
7 233 1
7 237 1
7 240 1
7 254 1
7 256 1
7 266 1
7 267 1
8 10 1
8 12 1
8 136 1
8 139 1
8 143 1
8 149 1
8 150 1
8 152 1
8 153 1
8 155 1
8 159 1
8 162 1
8 165 1
8 170 1
8 171 1
8 175 1
8 177 1
8 184 1
8 185 1
8 186 1
8 187 1
8 189 1
8 191 1
8 193 1
8 195 1
8 196 1
8 197 1
8 200 1
8 201 1
8 206 1
8 207 1
8 208 1
8 211 1
8 213 1
8 215 1
8 216 1
8 217 1
8 221 1
8 223 1
8 226 1
8 228 1
8 230 1
8 231 1
8 233 1
8 234 1
8 235 1
8 237 1
8 240 1
8 245 1
8 248 1
8 251 1
8 254 1
8 255 1
8 256 1
8 257 1
8 262 1
8 265 1
8 266 1
