%%MatrixMarket matrix coordinate integer general
%
135 270 810
1 1 1
1 41 1
1 135 1
1 136 1
1 191 1
1 192 1
2 2 1
2 42 1
2 127 1
2 137 1
2 192 1
2 193 1
3 3 1
3 43 1
3 128 1
3 138 1
3 193 1
3 194 1
4 4 1
4 44 1
4 129 1
4 139 1
4 194 1
4 195 1
5 5 1
5 45 1
5 130 1
5 140 1
5 195 1
5 196 1
6 6 1
6 37 1
6 131 1
6 141 1
6 196 1
6 197 1
7 7 1
7 38 1
7 132 1
7 142 1
7 197 1
7 198 1
8 8 1
8 39 1
8 133 1
8 143 1
8 190 1
8 198 1
9 9 1
9 40 1
9 134 1
9 144 1
9 190 1
9 191 1
10 9 1
10 10 1
10 50 1
10 145 1
10 200 1
10 201 1
11 1 1
11 11 1
11 51 1
11 146 1
11 201 1
11 202 1
12 2 1
12 12 1
12 52 1
12 147 1
12 202 1
12 203 1
13 3 1
13 13 1
13 53 1
13 148 1
13 203 1
13 204 1
14 4 1
14 14 1
14 54 1
14 149 1
14 204 1
14 205 1
15 5 1
15 15 1
15 46 1
15 150 1
15 205 1
15 206 1
16 6 1
16 16 1
16 47 1
16 151 1
16 206 1
16 207 1
17 7 1
17 17 1
17 48 1
17 152 1
17 199 1
17 207 1
18 8 1
18 18 1
18 49 1
18 153 1
18 199 1
18 200 1
19 18 1
19 19 1
19 59 1
19 154 1
19 209 1
19 210 1
20 10 1
20 20 1
20 60 1
20 155 1
20 210 1
20 211 1
21 11 1
21 21 1
21 61 1
21 156 1
21 211 1
21 212 1
22 12 1
22 22 1
22 62 1
22 157 1
22 212 1
22 213 1
23 13 1
23 23 1
23 63 1
23 158 1
23 213 1
23 214 1
24 14 1
24 24 1
24 55 1
24 159 1
24 214 1
24 215 1
25 15 1
25 25 1
25 56 1
25 160 1
25 215 1
25 216 1
26 16 1
26 26 1
26 57 1
26 161 1
26 208 1
26 216 1
27 17 1
27 27 1
27 58 1
27 162 1
27 208 1
27 209 1
28 27 1
28 28 1
28 68 1
28 163 1
28 218 1
28 219 1
29 19 1
29 29 1
29 69 1
29 164 1
29 219 1
29 220 1
30 20 1
30 30 1
30 70 1
30 165 1
30 220 1
30 221 1
31 21 1
31 31 1
31 71 1
31 166 1
31 221 1
31 222 1
32 22 1
32 32 1
32 72 1
32 167 1
32 222 1
32 223 1
33 23 1
33 33 1
33 64 1
33 168 1
33 223 1
33 224 1
34 24 1
34 34 1
34 65 1
34 169 1
34 224 1
34 225 1
35 25 1
35 35 1
35 66 1
35 170 1
35 217 1
35 225 1
36 26 1
36 36 1
36 67 1
36 171 1
36 217 1
36 218 1
37 36 1
37 37 1
37 77 1
37 172 1
37 227 1
37 228 1
38 28 1
38 38 1
38 78 1
38 173 1
38 228 1
38 229 1
39 29 1
39 39 1
39 79 1
39 174 1
39 229 1
39 230 1
40 30 1
40 40 1
40 80 1
40 175 1
40 230 1
40 231 1
41 31 1
41 41 1
41 81 1
41 176 1
41 231 1
41 232 1
42 32 1
42 42 1
42 73 1
42 177 1
42 232 1
42 233 1
43 33 1
43 43 1
43 74 1
43 178 1
43 233 1
43 234 1
44 34 1
44 44 1
44 75 1
44 179 1
44 226 1
44 234 1
45 35 1
45 45 1
45 76 1
45 180 1
45 226 1
45 227 1
46 45 1
46 46 1
46 86 1
46 181 1
46 236 1
46 237 1
47 37 1
47 47 1
47 87 1
47 182 1
47 237 1
47 238 1
48 38 1
48 48 1
48 88 1
48 183 1
48 238 1
48 239 1
49 39 1
49 49 1
49 89 1
49 184 1
49 239 1
49 240 1
50 40 1
50 50 1
50 90 1
50 185 1
50 240 1
50 241 1
51 41 1
51 51 1
51 82 1
51 186 1
51 241 1
51 242 1
52 42 1
52 52 1
52 83 1
52 187 1
52 242 1
52 243 1
53 43 1
53 53 1
53 84 1
53 188 1
53 235 1
53 243 1
54 44 1
54 54 1
54 85 1
54 189 1
54 235 1
54 236 1
55 54 1
55 55 1
55 95 1
55 190 1
55 245 1
55 246 1
56 46 1
56 56 1
56 96 1
56 191 1
56 246 1
56 247 1
57 47 1
57 57 1
57 97 1
57 192 1
57 247 1
57 248 1
58 48 1
58 58 1
58 98 1
58 193 1
58 248 1
58 249 1
59 49 1
59 59 1
59 99 1
59 194 1
59 249 1
59 250 1
60 50 1
60 60 1
60 91 1
60 195 1
60 250 1
60 251 1
61 51 1
61 61 1
61 92 1
61 196 1
61 251 1
61 252 1
62 52 1
62 62 1
62 93 1
62 197 1
62 244 1
62 252 1
63 53 1
63 63 1
63 94 1
63 198 1
63 244 1
63 245 1
64 63 1
64 64 1
64 104 1
64 199 1
64 254 1
64 255 1
65 55 1
65 65 1
65 105 1
65 200 1
65 255 1
65 256 1
66 56 1
66 66 1
66 106 1
66 201 1
66 256 1
66 257 1
67 57 1
67 67 1
67 107 1
67 202 1
67 257 1
67 258 1
68 58 1
68 68 1
68 108 1
68 203 1
68 258 1
68 259 1
69 59 1
69 69 1
69 100 1
69 204 1
69 259 1
69 260 1
70 60 1
70 70 1
70 101 1
70 205 1
70 260 1
70 261 1
71 61 1
71 71 1
71 102 1
71 206 1
71 253 1
71 261 1
72 62 1
72 72 1
72 103 1
72 207 1
72 253 1
72 254 1
73 72 1
73 73 1
73 113 1
73 208 1
73 263 1
73 264 1
74 64 1
74 74 1
74 114 1
74 209 1
74 264 1
74 265 1
75 65 1
75 75 1
75 115 1
75 210 1
75 265 1
75 266 1
76 66 1
76 76 1
76 116 1
76 211 1
76 266 1
76 267 1
77 67 1
77 77 1
77 117 1
77 212 1
77 267 1
77 268 1
78 68 1
78 78 1
78 109 1
78 213 1
78 268 1
78 269 1
79 69 1
79 79 1
79 110 1
79 214 1
79 269 1
79 270 1
80 70 1
80 80 1
80 111 1
80 215 1
80 262 1
80 270 1
81 71 1
81 81 1
81 112 1
81 216 1
81 262 1
81 263 1
82 81 1
82 82 1
82 122 1
82 137 1
82 138 1
82 217 1
83 73 1
83 83 1
83 123 1
83 138 1
83 139 1
83 218 1
84 74 1
84 84 1
84 124 1
84 139 1
84 140 1
84 219 1
85 75 1
85 85 1
85 125 1
85 140 1
85 141 1
85 220 1
86 76 1
86 86 1
86 126 1
86 141 1
86 142 1
86 221 1
87 77 1
87 87 1
87 118 1
87 142 1
87 143 1
87 222 1
88 78 1
88 88 1
88 119 1
88 143 1
88 144 1
88 223 1
89 79 1
89 89 1
89 120 1
89 136 1
89 144 1
89 224 1
90 80 1
90 90 1
90 121 1
90 136 1
90 137 1
90 225 1
91 90 1
91 91 1
91 131 1
91 146 1
91 147 1
91 226 1
92 82 1
92 92 1
92 132 1
92 147 1
92 148 1
92 227 1
93 83 1
93 93 1
93 133 1
93 148 1
93 149 1
93 228 1
94 84 1
94 94 1
94 134 1
94 149 1
94 150 1
94 229 1
95 85 1
95 95 1
95 135 1
95 150 1
95 151 1
95 230 1
96 86 1
96 96 1
96 127 1
96 151 1
96 152 1
96 231 1
97 87 1
97 97 1
97 128 1
97 152 1
97 153 1
97 232 1
98 88 1
98 98 1
98 129 1
98 145 1
98 153 1
98 233 1
99 89 1
99 99 1
99 130 1
99 145 1
99 146 1
99 234 1
100 5 1
100 99 1
100 100 1
100 155 1
100 156 1
100 235 1
101 6 1
101 91 1
101 101 1
101 156 1
101 157 1
101 236 1
102 7 1
102 92 1
102 102 1
102 157 1
102 158 1
102 237 1
103 8 1
103 93 1
103 103 1
103 158 1
103 159 1
103 238 1
104 9 1
104 94 1
104 104 1
104 159 1
104 160 1
104 239 1
105 1 1
105 95 1
105 105 1
105 160 1
105 161 1
105 240 1
106 2 1
106 96 1
106 106 1
106 161 1
106 162 1
106 241 1
107 3 1
107 97 1
107 107 1
107 154 1
107 162 1
107 242 1
108 4 1
108 98 1
108 108 1
108 154 1
108 155 1
108 243 1
109 14 1
109 108 1
109 109 1
109 164 1
109 165 1
109 244 1
110 15 1
110 100 1
110 110 1
110 165 1
110 166 1
110 245 1
111 16 1
111 101 1
111 111 1
111 166 1
111 167 1
111 246 1
112 17 1
112 102 1
112 112 1
112 167 1
112 168 1
112 247 1
113 18 1
113 103 1
113 113 1
113 168 1
113 169 1
113 248 1
114 10 1
114 104 1
114 114 1
114 169 1
114 170 1
114 249 1
115 11 1
115 105 1
115 115 1
115 170 1
115 171 1
115 250 1
116 12 1
116 106 1
116 116 1
116 163 1
116 171 1
116 251 1
117 13 1
117 107 1
117 117 1
117 163 1
117 164 1
117 252 1
118 23 1
118 117 1
118 118 1
118 173 1
118 174 1
118 253 1
119 24 1
119 109 1
119 119 1
119 174 1
119 175 1
119 254 1
120 25 1
120 110 1
120 120 1
120 175 1
120 176 1
120 255 1
121 26 1
121 111 1
121 121 1
121 176 1
121 177 1
121 256 1
122 27 1
122 112 1
122 122 1
122 177 1
122 178 1
122 257 1
123 19 1
123 113 1
123 123 1
123 178 1
123 179 1
123 258 1
124 20 1
124 114 1
124 124 1
124 179 1
124 180 1
124 259 1
125 21 1
125 115 1
125 125 1
125 172 1
125 180 1
125 260 1
126 22 1
126 116 1
126 126 1
126 172 1
126 173 1
126 261 1
127 32 1
127 126 1
127 127 1
127 182 1
127 183 1
127 262 1
128 33 1
128 118 1
128 128 1
128 183 1
128 184 1
128 263 1
129 34 1
129 119 1
129 129 1
129 184 1
129 185 1
129 264 1
130 35 1
130 120 1
130 130 1
130 185 1
130 186 1
130 265 1
131 36 1
131 121 1
131 131 1
131 186 1
131 187 1
131 266 1
132 28 1
132 122 1
132 132 1
132 187 1
132 188 1
132 267 1
133 29 1
133 123 1
133 133 1
133 188 1
133 189 1
133 268 1
134 30 1
134 124 1
134 134 1
134 181 1
134 189 1
134 269 1
135 31 1
135 125 1
135 135 1
135 181 1
135 182 1
135 270 1
