%%MatrixMarket matrix coordinate integer general
%
8 270 304
1 3 1
1 6 1
1 9 1
1 10 1
1 13 1
1 16 1
1 30 1
1 33 1
1 36 1
1 37 1
1 40 1
1 43 1
1 57 1
1 60 1
1 63 1
1 64 1
1 67 1
1 70 1
1 84 1
1 87 1
1 90 1
1 91 1
1 94 1
1 97 1
1 111 1
1 114 1
1 117 1
1 118 1
1 121 1
1 124 1
2 1 1
2 4 1
2 7 1
2 11 1
2 14 1
2 17 1
2 28 1
2 31 1
2 34 1
2 38 1
2 41 1
2 44 1
2 55 1
2 58 1
2 61 1
2 65 1
2 68 1
2 71 1
2 82 1
2 85 1
2 88 1
2 92 1
2 95 1
2 98 1
2 109 1
2 112 1
2 115 1
2 119 1
2 122 1
2 125 1
3 2 1
3 5 1
3 8 1
3 19 1
3 22 1
3 25 1
3 29 1
3 32 1
3 35 1
3 46 1
3 49 1
3 52 1
3 56 1
3 59 1
3 62 1
3 73 1
3 76 1
3 79 1
3 83 1
3 86 1
3 89 1
3 100 1
3 103 1
3 106 1
3 110 1
3 113 1
3 116 1
3 127 1
3 130 1
3 133 1
4 3 1
4 6 1
4 9 1
4 20 1
4 23 1
4 26 1
4 30 1
4 33 1
4 36 1
4 47 1
4 50 1
4 53 1
4 57 1
4 60 1
4 63 1
4 74 1
4 77 1
4 80 1
4 84 1
4 87 1
4 90 1
4 101 1
4 104 1
4 107 1
4 111 1
4 114 1
4 117 1
4 128 1
4 131 1
4 134 1
5 5 1
5 8 1
5 11 1
5 12 1
5 15 1
5 18 1
5 19 1
5 21 1
5 22 1
5 27 1
5 31 1
5 32 1
5 41 1
5 45 1
5 49 1
5 51 1
5 56 1
5 62 1
5 69 1
5 71 1
5 73 1
5 79 1
5 82 1
5 83 1
5 86 1
5 89 1
5 93 1
5 96 1
5 110 1
5 112 1
5 122 1
5 123 1
5 127 1
5 130 1
5 136 1
5 137 1
6 3 1
6 5 1
6 8 1
6 11 1
6 15 1
6 18 1
6 20 1
6 21 1
6 23 1
6 27 1
6 30 1
6 31 1
6 36 1
6 40 1
6 41 1
6 42 1
6 43 1
6 45 1
6 49 1
6 50 1
6 51 1
6 52 1
6 56 1
6 60 1
6 62 1
6 64 1
6 67 1
6 69 1
6 71 1
6 72 1
6 73 1
6 74 1
6 79 1
6 80 1
6 82 1
6 86 1
6 89 1
6 91 1
6 93 1
6 96 1
6 110 1
6 112 1
6 113 1
6 114 1
6 117 1
6 118 1
6 121 1
6 122 1
6 127 1
6 128 1
6 130 1
6 131 1
6 136 1
6 138 1
7 1 1
7 4 1
7 14 1
7 17 1
7 20 1
7 21 1
7 24 1
7 27 1
7 28 1
7 30 1
7 31 1
7 36 1
7 40 1
7 41 1
7 50 1
7 54 1
7 58 1
7 60 1
7 65 1
7 71 1
7 78 1
7 80 1
7 82 1
7 88 1
7 91 1
7 92 1
7 95 1
7 98 1
7 102 1
7 105 1
7 119 1
7 121 1
7 131 1
7 132 1
7 145 1
7 146 1
8 1 1
8 4 1
8 8 1
8 14 1
8 15 1
8 17 1
8 18 1
8 20 1
8 24 1
8 27 1
8 30 1
8 35 1
8 36 1
8 40 1
8 42 1
8 49 1
8 50 1
8 51 1
8 52 1
8 54 1
8 56 1
8 58 1
8 60 1
8 61 1
8 62 1
8 65 1
8 66 1
8 71 1
8 72 1
8 73 1
8 76 1
8 78 1
8 80 1
8 81 1
8 82 1
8 86 1
8 88 1
8 91 1
8 93 1
8 95 1
8 96 1
8 98 1
8 99 1
8 100 1
8 102 1
8 105 1
8 110 1
8 113 1
8 116 1
8 119 1
8 120 1
8 121 1
8 122 1
8 127 1
8 130 1
8 131 1
8 145 1
8 147 1
