%%MatrixMarket matrix coordinate integer general
%
135 270 810
1 1 1
1 56 1
1 57 1
1 136 1
1 176 1
1 270 1
2 2 1
2 57 1
2 58 1
2 137 1
2 177 1
2 262 1
3 3 1
3 58 1
3 59 1
3 138 1
3 178 1
3 263 1
4 4 1
4 59 1
4 60 1
4 139 1
4 179 1
4 264 1
5 5 1
5 60 1
5 61 1
5 140 1
5 180 1
5 265 1
6 6 1
6 61 1
6 62 1
6 141 1
6 172 1
6 266 1
7 7 1
7 62 1
7 63 1
7 142 1
7 173 1
7 267 1
8 8 1
8 55 1
8 63 1
8 143 1
8 174 1
8 268 1
9 9 1
9 55 1
9 56 1
9 144 1
9 175 1
9 269 1
10 10 1
10 65 1
10 66 1
10 144 1
10 145 1
10 185 1
11 11 1
11 66 1
11 67 1
11 136 1
11 146 1
11 186 1
12 12 1
12 67 1
12 68 1
12 137 1
12 147 1
12 187 1
13 13 1
13 68 1
13 69 1
13 138 1
13 148 1
13 188 1
14 14 1
14 69 1
14 70 1
14 139 1
14 149 1
14 189 1
15 15 1
15 70 1
15 71 1
15 140 1
15 150 1
15 181 1
16 16 1
16 71 1
16 72 1
16 141 1
16 151 1
16 182 1
17 17 1
17 64 1
17 72 1
17 142 1
17 152 1
17 183 1
18 18 1
18 64 1
18 65 1
18 143 1
18 153 1
18 184 1
19 19 1
19 74 1
19 75 1
19 153 1
19 154 1
19 194 1
20 20 1
20 75 1
20 76 1
20 145 1
20 155 1
20 195 1
21 21 1
21 76 1
21 77 1
21 146 1
21 156 1
21 196 1
22 22 1
22 77 1
22 78 1
22 147 1
22 157 1
22 197 1
23 23 1
23 78 1
23 79 1
23 148 1
23 158 1
23 198 1
24 24 1
24 79 1
24 80 1
24 149 1
24 159 1
24 190 1
25 25 1
25 80 1
25 81 1
25 150 1
25 160 1
25 191 1
26 26 1
26 73 1
26 81 1
26 151 1
26 161 1
26 192 1
27 27 1
27 73 1
27 74 1
27 152 1
27 162 1
27 193 1
28 28 1
28 83 1
28 84 1
28 162 1
28 163 1
28 203 1
29 29 1
29 84 1
29 85 1
29 154 1
29 164 1
29 204 1
30 30 1
30 85 1
30 86 1
30 155 1
30 165 1
30 205 1
31 31 1
31 86 1
31 87 1
31 156 1
31 166 1
31 206 1
32 32 1
32 87 1
32 88 1
32 157 1
32 167 1
32 207 1
33 33 1
33 88 1
33 89 1
33 158 1
33 168 1
33 199 1
34 34 1
34 89 1
34 90 1
34 159 1
34 169 1
34 200 1
35 35 1
35 82 1
35 90 1
35 160 1
35 170 1
35 201 1
36 36 1
36 82 1
36 83 1
36 161 1
36 171 1
36 202 1
37 37 1
37 92 1
37 93 1
37 171 1
37 172 1
37 212 1
38 38 1
38 93 1
38 94 1
38 163 1
38 173 1
38 213 1
39 39 1
39 94 1
39 95 1
39 164 1
39 174 1
39 214 1
40 40 1
40 95 1
40 96 1
40 165 1
40 175 1
40 215 1
41 41 1
41 96 1
41 97 1
41 166 1
41 176 1
41 216 1
42 42 1
42 97 1
42 98 1
42 167 1
42 177 1
42 208 1
43 43 1
43 98 1
43 99 1
43 168 1
43 178 1
43 209 1
44 44 1
44 91 1
44 99 1
44 169 1
44 179 1
44 210 1
45 45 1
45 91 1
45 92 1
45 170 1
45 180 1
45 211 1
46 46 1
46 101 1
46 102 1
46 180 1
46 181 1
46 221 1
47 47 1
47 102 1
47 103 1
47 172 1
47 182 1
47 222 1
48 48 1
48 103 1
48 104 1
48 173 1
48 183 1
48 223 1
49 49 1
49 104 1
49 105 1
49 174 1
49 184 1
49 224 1
50 50 1
50 105 1
50 106 1
50 175 1
50 185 1
50 225 1
51 51 1
51 106 1
51 107 1
51 176 1
51 186 1
51 217 1
52 52 1
52 107 1
52 108 1
52 177 1
52 187 1
52 218 1
53 53 1
53 100 1
53 108 1
53 178 1
53 188 1
53 219 1
54 54 1
54 100 1
54 101 1
54 179 1
54 189 1
54 220 1
55 55 1
55 110 1
55 111 1
55 189 1
55 190 1
55 230 1
56 56 1
56 111 1
56 112 1
56 181 1
56 191 1
56 231 1
57 57 1
57 112 1
57 113 1
57 182 1
57 192 1
57 232 1
58 58 1
58 113 1
58 114 1
58 183 1
58 193 1
58 233 1
59 59 1
59 114 1
59 115 1
59 184 1
59 194 1
59 234 1
60 60 1
60 115 1
60 116 1
60 185 1
60 195 1
60 226 1
61 61 1
61 116 1
61 117 1
61 186 1
61 196 1
61 227 1
62 62 1
62 109 1
62 117 1
62 187 1
62 197 1
62 228 1
63 63 1
63 109 1
63 110 1
63 188 1
63 198 1
63 229 1
64 64 1
64 119 1
64 120 1
64 198 1
64 199 1
64 239 1
65 65 1
65 120 1
65 121 1
65 190 1
65 200 1
65 240 1
66 66 1
66 121 1
66 122 1
66 191 1
66 201 1
66 241 1
67 67 1
67 122 1
67 123 1
67 192 1
67 202 1
67 242 1
68 68 1
68 123 1
68 124 1
68 193 1
68 203 1
68 243 1
69 69 1
69 124 1
69 125 1
69 194 1
69 204 1
69 235 1
70 70 1
70 125 1
70 126 1
70 195 1
70 205 1
70 236 1
71 71 1
71 118 1
71 126 1
71 196 1
71 206 1
71 237 1
72 72 1
72 118 1
72 119 1
72 197 1
72 207 1
72 238 1
73 73 1
73 128 1
73 129 1
73 207 1
73 208 1
73 248 1
74 74 1
74 129 1
74 130 1
74 199 1
74 209 1
74 249 1
75 75 1
75 130 1
75 131 1
75 200 1
75 210 1
75 250 1
76 76 1
76 131 1
76 132 1
76 201 1
76 211 1
76 251 1
77 77 1
77 132 1
77 133 1
77 202 1
77 212 1
77 252 1
78 78 1
78 133 1
78 134 1
78 203 1
78 213 1
78 244 1
79 79 1
79 134 1
79 135 1
79 204 1
79 214 1
79 245 1
80 80 1
80 127 1
80 135 1
80 205 1
80 215 1
80 246 1
81 81 1
81 127 1
81 128 1
81 206 1
81 216 1
81 247 1
82 2 1
82 3 1
82 82 1
82 216 1
82 217 1
82 257 1
83 3 1
83 4 1
83 83 1
83 208 1
83 218 1
83 258 1
84 4 1
84 5 1
84 84 1
84 209 1
84 219 1
84 259 1
85 5 1
85 6 1
85 85 1
85 210 1
85 220 1
85 260 1
86 6 1
86 7 1
86 86 1
86 211 1
86 221 1
86 261 1
87 7 1
87 8 1
87 87 1
87 212 1
87 222 1
87 253 1
88 8 1
88 9 1
88 88 1
88 213 1
88 223 1
88 254 1
89 1 1
89 9 1
89 89 1
89 214 1
89 224 1
89 255 1
90 1 1
90 2 1
90 90 1
90 215 1
90 225 1
90 256 1
91 11 1
91 12 1
91 91 1
91 225 1
91 226 1
91 266 1
92 12 1
92 13 1
92 92 1
92 217 1
92 227 1
92 267 1
93 13 1
93 14 1
93 93 1
93 218 1
93 228 1
93 268 1
94 14 1
94 15 1
94 94 1
94 219 1
94 229 1
94 269 1
95 15 1
95 16 1
95 95 1
95 220 1
95 230 1
95 270 1
96 16 1
96 17 1
96 96 1
96 221 1
96 231 1
96 262 1
97 17 1
97 18 1
97 97 1
97 222 1
97 232 1
97 263 1
98 10 1
98 18 1
98 98 1
98 223 1
98 233 1
98 264 1
99 10 1
99 11 1
99 99 1
99 224 1
99 234 1
99 265 1
100 20 1
100 21 1
100 100 1
100 140 1
100 234 1
100 235 1
101 21 1
101 22 1
101 101 1
101 141 1
101 226 1
101 236 1
102 22 1
102 23 1
102 102 1
102 142 1
102 227 1
102 237 1
103 23 1
103 24 1
103 103 1
103 143 1
103 228 1
103 238 1
104 24 1
104 25 1
104 104 1
104 144 1
104 229 1
104 239 1
105 25 1
105 26 1
105 105 1
105 136 1
105 230 1
105 240 1
106 26 1
106 27 1
106 106 1
106 137 1
106 231 1
106 241 1
107 19 1
107 27 1
107 107 1
107 138 1
107 232 1
107 242 1
108 19 1
108 20 1
108 108 1
108 139 1
108 233 1
108 243 1
109 29 1
109 30 1
109 109 1
109 149 1
109 243 1
109 244 1
110 30 1
110 31 1
110 110 1
110 150 1
110 235 1
110 245 1
111 31 1
111 32 1
111 111 1
111 151 1
111 236 1
111 246 1
112 32 1
112 33 1
112 112 1
112 152 1
112 237 1
112 247 1
113 33 1
113 34 1
113 113 1
113 153 1
113 238 1
113 248 1
114 34 1
114 35 1
114 114 1
114 145 1
114 239 1
114 249 1
115 35 1
115 36 1
115 115 1
115 146 1
115 240 1
115 250 1
116 28 1
116 36 1
116 116 1
116 147 1
116 241 1
116 251 1
117 28 1
117 29 1
117 117 1
117 148 1
117 242 1
117 252 1
118 38 1
118 39 1
118 118 1
118 158 1
118 252 1
118 253 1
119 39 1
119 40 1
119 119 1
119 159 1
119 244 1
119 254 1
120 40 1
120 41 1
120 120 1
120 160 1
120 245 1
120 255 1
121 41 1
121 42 1
121 121 1
121 161 1
121 246 1
121 256 1
122 42 1
122 43 1
122 122 1
122 162 1
122 247 1
122 257 1
123 43 1
123 44 1
123 123 1
123 154 1
123 248 1
123 258 1
124 44 1
124 45 1
124 124 1
124 155 1
124 249 1
124 259 1
125 37 1
125 45 1
125 125 1
125 156 1
125 250 1
125 260 1
126 37 1
126 38 1
126 126 1
126 157 1
126 251 1
126 261 1
127 47 1
127 48 1
127 127 1
127 167 1
127 261 1
127 262 1
128 48 1
128 49 1
128 128 1
128 168 1
128 253 1
128 263 1
129 49 1
129 50 1
129 129 1
129 169 1
129 254 1
129 264 1
130 50 1
130 51 1
130 130 1
130 170 1
130 255 1
130 265 1
131 51 1
131 52 1
131 131 1
131 171 1
131 256 1
131 266 1
132 52 1
132 53 1
132 132 1
132 163 1
132 257 1
132 267 1
133 53 1
133 54 1
133 133 1
133 164 1
133 258 1
133 268 1
134 46 1
134 54 1
134 134 1
134 165 1
134 259 1
134 269 1
135 46 1
135 47 1
135 135 1
135 166 1
135 260 1
135 270 1
