%%MatrixMarket matrix coordinate integer general
%
135 270 810
1 1 1
1 121 1
1 130 1
1 136 1
1 218 1
1 225 1
2 2 1
2 122 1
2 131 1
2 137 1
2 217 1
2 219 1
3 3 1
3 123 1
3 132 1
3 138 1
3 218 1
3 220 1
4 4 1
4 124 1
4 133 1
4 139 1
4 219 1
4 221 1
5 5 1
5 125 1
5 134 1
5 140 1
5 220 1
5 222 1
6 6 1
6 126 1
6 135 1
6 141 1
6 221 1
6 223 1
7 7 1
7 118 1
7 127 1
7 142 1
7 222 1
7 224 1
8 8 1
8 119 1
8 128 1
8 143 1
8 223 1
8 225 1
9 9 1
9 120 1
9 129 1
9 144 1
9 217 1
9 224 1
10 4 1
10 10 1
10 130 1
10 145 1
10 227 1
10 234 1
11 5 1
11 11 1
11 131 1
11 146 1
11 226 1
11 228 1
12 6 1
12 12 1
12 132 1
12 147 1
12 227 1
12 229 1
13 7 1
13 13 1
13 133 1
13 148 1
13 228 1
13 230 1
14 8 1
14 14 1
14 134 1
14 149 1
14 229 1
14 231 1
15 9 1
15 15 1
15 135 1
15 150 1
15 230 1
15 232 1
16 1 1
16 16 1
16 127 1
16 151 1
16 231 1
16 233 1
17 2 1
17 17 1
17 128 1
17 152 1
17 232 1
17 234 1
18 3 1
18 18 1
18 129 1
18 153 1
18 226 1
18 233 1
19 4 1
19 13 1
19 19 1
19 154 1
19 236 1
19 243 1
20 5 1
20 14 1
20 20 1
20 155 1
20 235 1
20 237 1
21 6 1
21 15 1
21 21 1
21 156 1
21 236 1
21 238 1
22 7 1
22 16 1
22 22 1
22 157 1
22 237 1
22 239 1
23 8 1
23 17 1
23 23 1
23 158 1
23 238 1
23 240 1
24 9 1
24 18 1
24 24 1
24 159 1
24 239 1
24 241 1
25 1 1
25 10 1
25 25 1
25 160 1
25 240 1
25 242 1
26 2 1
26 11 1
26 26 1
26 161 1
26 241 1
26 243 1
27 3 1
27 12 1
27 27 1
27 162 1
27 235 1
27 242 1
28 13 1
28 22 1
28 28 1
28 163 1
28 245 1
28 252 1
29 14 1
29 23 1
29 29 1
29 164 1
29 244 1
29 246 1
30 15 1
30 24 1
30 30 1
30 165 1
30 245 1
30 247 1
31 16 1
31 25 1
31 31 1
31 166 1
31 246 1
31 248 1
32 17 1
32 26 1
32 32 1
32 167 1
32 247 1
32 249 1
33 18 1
33 27 1
33 33 1
33 168 1
33 248 1
33 250 1
34 10 1
34 19 1
34 34 1
34 169 1
34 249 1
34 251 1
35 11 1
35 20 1
35 35 1
35 170 1
35 250 1
35 252 1
36 12 1
36 21 1
36 36 1
36 171 1
36 244 1
36 251 1
37 22 1
37 31 1
37 37 1
37 172 1
37 254 1
37 261 1
38 23 1
38 32 1
38 38 1
38 173 1
38 253 1
38 255 1
39 24 1
39 33 1
39 39 1
39 174 1
39 254 1
39 256 1
40 25 1
40 34 1
40 40 1
40 175 1
40 255 1
40 257 1
41 26 1
41 35 1
41 41 1
41 176 1
41 256 1
41 258 1
42 27 1
42 36 1
42 42 1
42 177 1
42 257 1
42 259 1
43 19 1
43 28 1
43 43 1
43 178 1
43 258 1
43 260 1
44 20 1
44 29 1
44 44 1
44 179 1
44 259 1
44 261 1
45 21 1
45 30 1
45 45 1
45 180 1
45 253 1
45 260 1
46 31 1
46 40 1
46 46 1
46 181 1
46 263 1
46 270 1
47 32 1
47 41 1
47 47 1
47 182 1
47 262 1
47 264 1
48 33 1
48 42 1
48 48 1
48 183 1
48 263 1
48 265 1
49 34 1
49 43 1
49 49 1
49 184 1
49 264 1
49 266 1
50 35 1
50 44 1
50 50 1
50 185 1
50 265 1
50 267 1
51 36 1
51 45 1
51 51 1
51 186 1
51 266 1
51 268 1
52 28 1
52 37 1
52 52 1
52 187 1
52 267 1
52 269 1
53 29 1
53 38 1
53 53 1
53 188 1
53 268 1
53 270 1
54 30 1
54 39 1
54 54 1
54 189 1
54 262 1
54 269 1
55 40 1
55 49 1
55 55 1
55 137 1
55 144 1
55 190 1
56 41 1
56 50 1
56 56 1
56 136 1
56 138 1
56 191 1
57 42 1
57 51 1
57 57 1
57 137 1
57 139 1
57 192 1
58 43 1
58 52 1
58 58 1
58 138 1
58 140 1
58 193 1
59 44 1
59 53 1
59 59 1
59 139 1
59 141 1
59 194 1
60 45 1
60 54 1
60 60 1
60 140 1
60 142 1
60 195 1
61 37 1
61 46 1
61 61 1
61 141 1
61 143 1
61 196 1
62 38 1
62 47 1
62 62 1
62 142 1
62 144 1
62 197 1
63 39 1
63 48 1
63 63 1
63 136 1
63 143 1
63 198 1
64 49 1
64 58 1
64 64 1
64 146 1
64 153 1
64 199 1
65 50 1
65 59 1
65 65 1
65 145 1
65 147 1
65 200 1
66 51 1
66 60 1
66 66 1
66 146 1
66 148 1
66 201 1
67 52 1
67 61 1
67 67 1
67 147 1
67 149 1
67 202 1
68 53 1
68 62 1
68 68 1
68 148 1
68 150 1
68 203 1
69 54 1
69 63 1
69 69 1
69 149 1
69 151 1
69 204 1
70 46 1
70 55 1
70 70 1
70 150 1
70 152 1
70 205 1
71 47 1
71 56 1
71 71 1
71 151 1
71 153 1
71 206 1
72 48 1
72 57 1
72 72 1
72 145 1
72 152 1
72 207 1
73 58 1
73 67 1
73 73 1
73 155 1
73 162 1
73 208 1
74 59 1
74 68 1
74 74 1
74 154 1
74 156 1
74 209 1
75 60 1
75 69 1
75 75 1
75 155 1
75 157 1
75 210 1
76 61 1
76 70 1
76 76 1
76 156 1
76 158 1
76 211 1
77 62 1
77 71 1
77 77 1
77 157 1
77 159 1
77 212 1
78 63 1
78 72 1
78 78 1
78 158 1
78 160 1
78 213 1
79 55 1
79 64 1
79 79 1
79 159 1
79 161 1
79 214 1
80 56 1
80 65 1
80 80 1
80 160 1
80 162 1
80 215 1
81 57 1
81 66 1
81 81 1
81 154 1
81 161 1
81 216 1
82 67 1
82 76 1
82 82 1
82 164 1
82 171 1
82 217 1
83 68 1
83 77 1
83 83 1
83 163 1
83 165 1
83 218 1
84 69 1
84 78 1
84 84 1
84 164 1
84 166 1
84 219 1
85 70 1
85 79 1
85 85 1
85 165 1
85 167 1
85 220 1
86 71 1
86 80 1
86 86 1
86 166 1
86 168 1
86 221 1
87 72 1
87 81 1
87 87 1
87 167 1
87 169 1
87 222 1
88 64 1
88 73 1
88 88 1
88 168 1
88 170 1
88 223 1
89 65 1
89 74 1
89 89 1
89 169 1
89 171 1
89 224 1
90 66 1
90 75 1
90 90 1
90 163 1
90 170 1
90 225 1
91 76 1
91 85 1
91 91 1
91 173 1
91 180 1
91 226 1
92 77 1
92 86 1
92 92 1
92 172 1
92 174 1
92 227 1
93 78 1
93 87 1
93 93 1
93 173 1
93 175 1
93 228 1
94 79 1
94 88 1
94 94 1
94 174 1
94 176 1
94 229 1
95 80 1
95 89 1
95 95 1
95 175 1
95 177 1
95 230 1
96 81 1
96 90 1
96 96 1
96 176 1
96 178 1
96 231 1
97 73 1
97 82 1
97 97 1
97 177 1
97 179 1
97 232 1
98 74 1
98 83 1
98 98 1
98 178 1
98 180 1
98 233 1
99 75 1
99 84 1
99 99 1
99 172 1
99 179 1
99 234 1
100 85 1
100 94 1
100 100 1
100 182 1
100 189 1
100 235 1
101 86 1
101 95 1
101 101 1
101 181 1
101 183 1
101 236 1
102 87 1
102 96 1
102 102 1
102 182 1
102 184 1
102 237 1
103 88 1
103 97 1
103 103 1
103 183 1
103 185 1
103 238 1
104 89 1
104 98 1
104 104 1
104 184 1
104 186 1
104 239 1
105 90 1
105 99 1
105 105 1
105 185 1
105 187 1
105 240 1
106 82 1
106 91 1
106 106 1
106 186 1
106 188 1
106 241 1
107 83 1
107 92 1
107 107 1
107 187 1
107 189 1
107 242 1
108 84 1
108 93 1
108 108 1
108 181 1
108 188 1
108 243 1
109 94 1
109 103 1
109 109 1
109 191 1
109 198 1
109 244 1
110 95 1
110 104 1
110 110 1
110 190 1
110 192 1
110 245 1
111 96 1
111 105 1
111 111 1
111 191 1
111 193 1
111 246 1
112 97 1
112 106 1
112 112 1
112 192 1
112 194 1
112 247 1
113 98 1
113 107 1
113 113 1
113 193 1
113 195 1
113 248 1
114 99 1
114 108 1
114 114 1
114 194 1
114 196 1
114 249 1
115 91 1
115 100 1
115 115 1
115 195 1
115 197 1
115 250 1
116 92 1
116 101 1
116 116 1
116 196 1
116 198 1
116 251 1
117 93 1
117 102 1
117 117 1
117 190 1
117 197 1
117 252 1
118 103 1
118 112 1
118 118 1
118 200 1
118 207 1
118 253 1
119 104 1
119 113 1
119 119 1
119 199 1
119 201 1
119 254 1
120 105 1
120 114 1
120 120 1
120 200 1
120 202 1
120 255 1
121 106 1
121 115 1
121 121 1
121 201 1
121 203 1
121 256 1
122 107 1
122 116 1
122 122 1
122 202 1
122 204 1
122 257 1
123 108 1
123 117 1
123 123 1
123 203 1
123 205 1
123 258 1
124 100 1
124 109 1
124 124 1
124 204 1
124 206 1
124 259 1
125 101 1
125 110 1
125 125 1
125 205 1
125 207 1
125 260 1
126 102 1
126 111 1
126 126 1
126 199 1
126 206 1
126 261 1
127 112 1
127 121 1
127 127 1
127 209 1
127 216 1
127 262 1
128 113 1
128 122 1
128 128 1
128 208 1
128 210 1
128 263 1
129 114 1
129 123 1
129 129 1
129 209 1
129 211 1
129 264 1
130 115 1
130 124 1
130 130 1
130 210 1
130 212 1
130 265 1
131 116 1
131 125 1
131 131 1
131 211 1
131 213 1
131 266 1
132 117 1
132 126 1
132 132 1
132 212 1
132 214 1
132 267 1
133 109 1
133 118 1
133 133 1
133 213 1
133 215 1
133 268 1
134 110 1
134 119 1
134 134 1
134 214 1
134 216 1
134 269 1
135 111 1
135 120 1
135 135 1
135 208 1
135 215 1
135 270 1
