%%MatrixMarket matrix coordinate integer general
%
8 270 208
1 7 1
1 13 1
1 19 1
1 22 1
1 34 1
1 37 1
1 40 1
1 43 1
1 46 1
1 52 1
1 55 1
1 67 1
1 73 1
1 79 1
1 82 1
1 85 1
1 88 1
1 91 1
1 100 1
1 103 1
1 109 1
1 118 1
2 8 1
2 14 1
2 20 1
2 23 1
2 35 1
2 38 1
2 41 1
2 44 1
2 47 1
2 53 1
2 56 1
2 68 1
2 74 1
2 80 1
2 83 1
2 86 1
2 89 1
2 92 1
2 101 1
2 104 1
2 110 1
2 119 1
3 7 1
3 13 1
3 16 1
3 19 1
3 28 1
3 31 1
3 34 1
3 37 1
3 40 1
3 49 1
3 61 1
3 64 1
3 67 1
3 73 1
3 76 1
3 79 1
3 85 1
3 94 1
3 97 1
3 103 1
3 112 1
3 127 1
4 8 1
4 14 1
4 17 1
4 20 1
4 29 1
4 32 1
4 35 1
4 38 1
4 41 1
4 50 1
4 62 1
4 65 1
4 68 1
4 74 1
4 77 1
4 80 1
4 86 1
4 95 1
4 98 1
4 104 1
4 113 1
4 128 1
5 1 1
5 2 1
5 4 1
5 5 1
5 7 1
5 8 1
5 10 1
5 11 1
5 13 1
5 14 1
5 16 1
5 17 1
5 28 1
5 29 1
5 31 1
5 32 1
5 34 1
5 35 1
5 37 1
5 38 1
5 40 1
5 41 1
5 43 1
5 44 1
5 136 1
5 137 1
5 139 1
5 140 1
5 142 1
5 143 1
6 1 1
6 3 1
6 4 1
6 6 1
6 7 1
6 9 1
6 10 1
6 12 1
6 13 1
6 15 1
6 16 1
6 18 1
6 28 1
6 30 1
6 31 1
6 33 1
6 34 1
6 36 1
6 37 1
6 39 1
6 40 1
6 42 1
6 43 1
6 45 1
6 136 1
6 138 1
6 139 1
6 141 1
6 142 1
6 144 1
7 10 1
7 11 1
7 13 1
7 14 1
7 16 1
7 17 1
7 19 1
7 20 1
7 22 1
7 23 1
7 25 1
7 26 1
7 37 1
7 38 1
7 40 1
7 41 1
7 43 1
7 44 1
7 46 1
7 47 1
7 49 1
7 50 1
7 52 1
7 53 1
7 145 1
7 146 1
7 148 1
7 149 1
7 151 1
7 152 1
8 10 1
8 12 1
8 13 1
8 15 1
8 16 1
8 18 1
8 19 1
8 21 1
8 22 1
8 24 1
8 25 1
8 27 1
8 37 1
8 39 1
8 40 1
8 42 1
8 43 1
8 45 1
8 46 1
8 48 1
8 49 1
8 51 1
8 52 1
8 54 1
8 145 1
8 147 1
8 148 1
8 150 1
8 151 1
8 153 1
