%%MatrixMarket matrix coordinate integer general
%
135 270 810
1 1 1
1 56 1
1 63 1
1 136 1
1 151 1
1 160 1
2 2 1
2 55 1
2 57 1
2 137 1
2 152 1
2 161 1
3 3 1
3 56 1
3 58 1
3 138 1
3 153 1
3 162 1
4 4 1
4 57 1
4 59 1
4 139 1
4 145 1
4 154 1
5 5 1
5 58 1
5 60 1
5 140 1
5 146 1
5 155 1
6 6 1
6 59 1
6 61 1
6 141 1
6 147 1
6 156 1
7 7 1
7 60 1
7 62 1
7 142 1
7 148 1
7 157 1
8 8 1
8 61 1
8 63 1
8 143 1
8 149 1
8 158 1
9 9 1
9 55 1
9 62 1
9 144 1
9 150 1
9 159 1
10 10 1
10 65 1
10 72 1
10 145 1
10 160 1
10 169 1
11 11 1
11 64 1
11 66 1
11 146 1
11 161 1
11 170 1
12 12 1
12 65 1
12 67 1
12 147 1
12 162 1
12 171 1
13 13 1
13 66 1
13 68 1
13 148 1
13 154 1
13 163 1
14 14 1
14 67 1
14 69 1
14 149 1
14 155 1
14 164 1
15 15 1
15 68 1
15 70 1
15 150 1
15 156 1
15 165 1
16 16 1
16 69 1
16 71 1
16 151 1
16 157 1
16 166 1
17 17 1
17 70 1
17 72 1
17 152 1
17 158 1
17 167 1
18 18 1
18 64 1
18 71 1
18 153 1
18 159 1
18 168 1
19 19 1
19 74 1
19 81 1
19 154 1
19 169 1
19 178 1
20 20 1
20 73 1
20 75 1
20 155 1
20 170 1
20 179 1
21 21 1
21 74 1
21 76 1
21 156 1
21 171 1
21 180 1
22 22 1
22 75 1
22 77 1
22 157 1
22 163 1
22 172 1
23 23 1
23 76 1
23 78 1
23 158 1
23 164 1
23 173 1
24 24 1
24 77 1
24 79 1
24 159 1
24 165 1
24 174 1
25 25 1
25 78 1
25 80 1
25 160 1
25 166 1
25 175 1
26 26 1
26 79 1
26 81 1
26 161 1
26 167 1
26 176 1
27 27 1
27 73 1
27 80 1
27 162 1
27 168 1
27 177 1
28 28 1
28 83 1
28 90 1
28 163 1
28 178 1
28 187 1
29 29 1
29 82 1
29 84 1
29 164 1
29 179 1
29 188 1
30 30 1
30 83 1
30 85 1
30 165 1
30 180 1
30 189 1
31 31 1
31 84 1
31 86 1
31 166 1
31 172 1
31 181 1
32 32 1
32 85 1
32 87 1
32 167 1
32 173 1
32 182 1
33 33 1
33 86 1
33 88 1
33 168 1
33 174 1
33 183 1
34 34 1
34 87 1
34 89 1
34 169 1
34 175 1
34 184 1
35 35 1
35 88 1
35 90 1
35 170 1
35 176 1
35 185 1
36 36 1
36 82 1
36 89 1
36 171 1
36 177 1
36 186 1
37 37 1
37 92 1
37 99 1
37 172 1
37 187 1
37 196 1
38 38 1
38 91 1
38 93 1
38 173 1
38 188 1
38 197 1
39 39 1
39 92 1
39 94 1
39 174 1
39 189 1
39 198 1
40 40 1
40 93 1
40 95 1
40 175 1
40 181 1
40 190 1
41 41 1
41 94 1
41 96 1
41 176 1
41 182 1
41 191 1
42 42 1
42 95 1
42 97 1
42 177 1
42 183 1
42 192 1
43 43 1
43 96 1
43 98 1
43 178 1
43 184 1
43 193 1
44 44 1
44 97 1
44 99 1
44 179 1
44 185 1
44 194 1
45 45 1
45 91 1
45 98 1
45 180 1
45 186 1
45 195 1
46 46 1
46 101 1
46 108 1
46 181 1
46 196 1
46 205 1
47 47 1
47 100 1
47 102 1
47 182 1
47 197 1
47 206 1
48 48 1
48 101 1
48 103 1
48 183 1
48 198 1
48 207 1
49 49 1
49 102 1
49 104 1
49 184 1
49 190 1
49 199 1
50 50 1
50 103 1
50 105 1
50 185 1
50 191 1
50 200 1
51 51 1
51 104 1
51 106 1
51 186 1
51 192 1
51 201 1
52 52 1
52 105 1
52 107 1
52 187 1
52 193 1
52 202 1
53 53 1
53 106 1
53 108 1
53 188 1
53 194 1
53 203 1
54 54 1
54 100 1
54 107 1
54 189 1
54 195 1
54 204 1
55 55 1
55 110 1
55 117 1
55 190 1
55 205 1
55 214 1
56 56 1
56 109 1
56 111 1
56 191 1
56 206 1
56 215 1
57 57 1
57 110 1
57 112 1
57 192 1
57 207 1
57 216 1
58 58 1
58 111 1
58 113 1
58 193 1
58 199 1
58 208 1
59 59 1
59 112 1
59 114 1
59 194 1
59 200 1
59 209 1
60 60 1
60 113 1
60 115 1
60 195 1
60 201 1
60 210 1
61 61 1
61 114 1
61 116 1
61 196 1
61 202 1
61 211 1
62 62 1
62 115 1
62 117 1
62 197 1
62 203 1
62 212 1
63 63 1
63 109 1
63 116 1
63 198 1
63 204 1
63 213 1
64 64 1
64 119 1
64 126 1
64 199 1
64 214 1
64 223 1
65 65 1
65 118 1
65 120 1
65 200 1
65 215 1
65 224 1
66 66 1
66 119 1
66 121 1
66 201 1
66 216 1
66 225 1
67 67 1
67 120 1
67 122 1
67 202 1
67 208 1
67 217 1
68 68 1
68 121 1
68 123 1
68 203 1
68 209 1
68 218 1
69 69 1
69 122 1
69 124 1
69 204 1
69 210 1
69 219 1
70 70 1
70 123 1
70 125 1
70 205 1
70 211 1
70 220 1
71 71 1
71 124 1
71 126 1
71 206 1
71 212 1
71 221 1
72 72 1
72 118 1
72 125 1
72 207 1
72 213 1
72 222 1
73 73 1
73 128 1
73 135 1
73 208 1
73 223 1
73 232 1
74 74 1
74 127 1
74 129 1
74 209 1
74 224 1
74 233 1
75 75 1
75 128 1
75 130 1
75 210 1
75 225 1
75 234 1
76 76 1
76 129 1
76 131 1
76 211 1
76 217 1
76 226 1
77 77 1
77 130 1
77 132 1
77 212 1
77 218 1
77 227 1
78 78 1
78 131 1
78 133 1
78 213 1
78 219 1
78 228 1
79 79 1
79 132 1
79 134 1
79 214 1
79 220 1
79 229 1
80 80 1
80 133 1
80 135 1
80 215 1
80 221 1
80 230 1
81 81 1
81 127 1
81 134 1
81 216 1
81 222 1
81 231 1
82 2 1
82 9 1
82 82 1
82 217 1
82 232 1
82 241 1
83 1 1
83 3 1
83 83 1
83 218 1
83 233 1
83 242 1
84 2 1
84 4 1
84 84 1
84 219 1
84 234 1
84 243 1
85 3 1
85 5 1
85 85 1
85 220 1
85 226 1
85 235 1
86 4 1
86 6 1
86 86 1
86 221 1
86 227 1
86 236 1
87 5 1
87 7 1
87 87 1
87 222 1
87 228 1
87 237 1
88 6 1
88 8 1
88 88 1
88 223 1
88 229 1
88 238 1
89 7 1
89 9 1
89 89 1
89 224 1
89 230 1
89 239 1
90 1 1
90 8 1
90 90 1
90 225 1
90 231 1
90 240 1
91 11 1
91 18 1
91 91 1
91 226 1
91 241 1
91 250 1
92 10 1
92 12 1
92 92 1
92 227 1
92 242 1
92 251 1
93 11 1
93 13 1
93 93 1
93 228 1
93 243 1
93 252 1
94 12 1
94 14 1
94 94 1
94 229 1
94 235 1
94 244 1
95 13 1
95 15 1
95 95 1
95 230 1
95 236 1
95 245 1
96 14 1
96 16 1
96 96 1
96 231 1
96 237 1
96 246 1
97 15 1
97 17 1
97 97 1
97 232 1
97 238 1
97 247 1
98 16 1
98 18 1
98 98 1
98 233 1
98 239 1
98 248 1
99 10 1
99 17 1
99 99 1
99 234 1
99 240 1
99 249 1
100 20 1
100 27 1
100 100 1
100 235 1
100 250 1
100 259 1
101 19 1
101 21 1
101 101 1
101 236 1
101 251 1
101 260 1
102 20 1
102 22 1
102 102 1
102 237 1
102 252 1
102 261 1
103 21 1
103 23 1
103 103 1
103 238 1
103 244 1
103 253 1
104 22 1
104 24 1
104 104 1
104 239 1
104 245 1
104 254 1
105 23 1
105 25 1
105 105 1
105 240 1
105 246 1
105 255 1
106 24 1
106 26 1
106 106 1
106 241 1
106 247 1
106 256 1
107 25 1
107 27 1
107 107 1
107 242 1
107 248 1
107 257 1
108 19 1
108 26 1
108 108 1
108 243 1
108 249 1
108 258 1
109 29 1
109 36 1
109 109 1
109 244 1
109 259 1
109 268 1
110 28 1
110 30 1
110 110 1
110 245 1
110 260 1
110 269 1
111 29 1
111 31 1
111 111 1
111 246 1
111 261 1
111 270 1
112 30 1
112 32 1
112 112 1
112 247 1
112 253 1
112 262 1
113 31 1
113 33 1
113 113 1
113 248 1
113 254 1
113 263 1
114 32 1
114 34 1
114 114 1
114 249 1
114 255 1
114 264 1
115 33 1
115 35 1
115 115 1
115 250 1
115 256 1
115 265 1
116 34 1
116 36 1
116 116 1
116 251 1
116 257 1
116 266 1
117 28 1
117 35 1
117 117 1
117 252 1
117 258 1
117 267 1
118 38 1
118 45 1
118 118 1
118 142 1
118 253 1
118 268 1
119 37 1
119 39 1
119 119 1
119 143 1
119 254 1
119 269 1
120 38 1
120 40 1
120 120 1
120 144 1
120 255 1
120 270 1
121 39 1
121 41 1
121 121 1
121 136 1
121 256 1
121 262 1
122 40 1
122 42 1
122 122 1
122 137 1
122 257 1
122 263 1
123 41 1
123 43 1
123 123 1
123 138 1
123 258 1
123 264 1
124 42 1
124 44 1
124 124 1
124 139 1
124 259 1
124 265 1
125 43 1
125 45 1
125 125 1
125 140 1
125 260 1
125 266 1
126 37 1
126 44 1
126 126 1
126 141 1
126 261 1
126 267 1
127 47 1
127 54 1
127 127 1
127 142 1
127 151 1
127 262 1
128 46 1
128 48 1
128 128 1
128 143 1
128 152 1
128 263 1
129 47 1
129 49 1
129 129 1
129 144 1
129 153 1
129 264 1
130 48 1
130 50 1
130 130 1
130 136 1
130 145 1
130 265 1
131 49 1
131 51 1
131 131 1
131 137 1
131 146 1
131 266 1
132 50 1
132 52 1
132 132 1
132 138 1
132 147 1
132 267 1
133 51 1
133 53 1
133 133 1
133 139 1
133 148 1
133 268 1
134 52 1
134 54 1
134 134 1
134 140 1
134 149 1
134 269 1
135 46 1
135 53 1
135 135 1
135 141 1
135 150 1
135 270 1
