p cnf 1101 2752
-1 -2 0
-1 -3 0
-1 -4 0
-1 -5 0
-1 -6 0
-1 -7 0
-1 -8 0
-1 -9 0
-1 -10 0
-1 -11 0
-1 -12 0
-1 -13 0
-2 -3 0
-2 -4 0
-2 -5 0
-2 -6 0
-2 -7 0
-2 -8 0
-2 -9 0
-2 -10 0
-2 -11 0
-2 -12 0
-2 -13 0
-3 -4 0
-3 -5 0
-3 -6 0
-3 -7 0
-3 -8 0
-3 -9 0
-3 -10 0
-3 -11 0
-3 -12 0
-3 -13 0
-4 -5 0
-4 -6 0
-4 -7 0
-4 -8 0
-4 -9 0
-4 -10 0
-4 -11 0
-4 -12 0
-4 -13 0
-5 -6 0
-5 -7 0
-5 -8 0
-5 -9 0
-5 -10 0
-5 -11 0
-5 -12 0
-5 -13 0
-6 -7 0
-6 -8 0
-6 -9 0
-6 -10 0
-6 -11 0
-6 -12 0
-6 -13 0
-7 -8 0
-7 -9 0
-7 -10 0
-7 -11 0
-7 -12 0
-7 -13 0
-8 -9 0
-8 -10 0
-8 -11 0
-8 -12 0
-8 -13 0
-9 -10 0
-9 -11 0
-9 -12 0
-9 -13 0
-10 -11 0
-10 -12 0
-10 -13 0
-11 -12 0
-11 -13 0
-12 -13 0
-192 170 0
-193 171 1 0
-194 172 2 0
-195 173 3 0
-196 174 4 0
-197 175 5 0
-198 176 6 0
-199 177 7 0
-200 178 8 0
-201 179 0
-202 180 9 0
-203 181 0
-204 182 0
-205 183 10 0
-206 184 11 0
-207 185 12 0
-208 186 13 0
-209 187 0
-210 188 0
-211 189 0
-212 190 0
-213 191 0
-14 -15 0
-14 -16 0
-14 -17 0
-14 -18 0
-14 -19 0
-14 -20 0
-14 -21 0
-14 -22 0
-14 -23 0
-14 -24 0
-14 -25 0
-14 -26 0
-15 -16 0
-15 -17 0
-15 -18 0
-15 -19 0
-15 -20 0
-15 -21 0
-15 -22 0
-15 -23 0
-15 -24 0
-15 -25 0
-15 -26 0
-16 -17 0
-16 -18 0
-16 -19 0
-16 -20 0
-16 -21 0
-16 -22 0
-16 -23 0
-16 -24 0
-16 -25 0
-16 -26 0
-17 -18 0
-17 -19 0
-17 -20 0
-17 -21 0
-17 -22 0
-17 -23 0
-17 -24 0
-17 -25 0
-17 -26 0
-18 -19 0
-18 -20 0
-18 -21 0
-18 -22 0
-18 -23 0
-18 -24 0
-18 -25 0
-18 -26 0
-19 -20 0
-19 -21 0
-19 -22 0
-19 -23 0
-19 -24 0
-19 -25 0
-19 -26 0
-20 -21 0
-20 -22 0
-20 -23 0
-20 -24 0
-20 -25 0
-20 -26 0
-21 -22 0
-21 -23 0
-21 -24 0
-21 -25 0
-21 -26 0
-22 -23 0
-22 -24 0
-22 -25 0
-22 -26 0
-23 -24 0
-23 -25 0
-23 -26 0
-24 -25 0
-24 -26 0
-25 -26 0
-214 192 0
-215 193 14 0
-216 194 15 0
-217 195 16 0
-218 196 17 0
-219 197 18 0
-220 198 19 0
-221 199 20 0
-222 200 21 0
-223 201 0
-224 202 22 0
-225 203 0
-226 204 0
-227 205 23 0
-228 206 24 0
-229 207 25 0
-230 208 26 0
-231 209 0
-232 210 0
-233 211 0
-234 212 0
-235 213 0
-27 -28 0
-27 -29 0
-27 -30 0
-27 -31 0
-27 -32 0
-27 -33 0
-27 -34 0
-27 -35 0
-27 -36 0
-27 -37 0
-27 -38 0
-27 -39 0
-28 -29 0
-28 -30 0
-28 -31 0
-28 -32 0
-28 -33 0
-28 -34 0
-28 -35 0
-28 -36 0
-28 -37 0
-28 -38 0
-28 -39 0
-29 -30 0
-29 -31 0
-29 -32 0
-29 -33 0
-29 -34 0
-29 -35 0
-29 -36 0
-29 -37 0
-29 -38 0
-29 -39 0
-30 -31 0
-30 -32 0
-30 -33 0
-30 -34 0
-30 -35 0
-30 -36 0
-30 -37 0
-30 -38 0
-30 -39 0
-31 -32 0
-31 -33 0
-31 -34 0
-31 -35 0
-31 -36 0
-31 -37 0
-31 -38 0
-31 -39 0
-32 -33 0
-32 -34 0
-32 -35 0
-32 -36 0
-32 -37 0
-32 -38 0
-32 -39 0
-33 -34 0
-33 -35 0
-33 -36 0
-33 -37 0
-33 -38 0
-33 -39 0
-34 -35 0
-34 -36 0
-34 -37 0
-34 -38 0
-34 -39 0
-35 -36 0
-35 -37 0
-35 -38 0
-35 -39 0
-36 -37 0
-36 -38 0
-36 -39 0
-37 -38 0
-37 -39 0
-38 -39 0
-236 214 0
-237 215 27 0
-238 216 28 0
-239 217 29 0
-240 218 30 0
-241 219 31 0
-242 220 32 0
-243 221 33 0
-244 222 34 0
-245 223 0
-246 224 35 0
-247 225 0
-248 226 0
-249 227 36 0
-250 228 37 0
-251 229 38 0
-252 230 39 0
-253 231 0
-254 232 0
-255 233 0
-256 234 0
-257 235 0
-40 -41 0
-40 -42 0
-40 -43 0
-40 -44 0
-40 -45 0
-40 -46 0
-40 -47 0
-40 -48 0
-40 -49 0
-40 -50 0
-40 -51 0
-40 -52 0
-41 -42 0
-41 -43 0
-41 -44 0
-41 -45 0
-41 -46 0
-41 -47 0
-41 -48 0
-41 -49 0
-41 -50 0
-41 -51 0
-41 -52 0
-42 -43 0
-42 -44 0
-42 -45 0
-42 -46 0
-42 -47 0
-42 -48 0
-42 -49 0
-42 -50 0
-42 -51 0
-42 -52 0
-43 -44 0
-43 -45 0
-43 -46 0
-43 -47 0
-43 -48 0
-43 -49 0
-43 -50 0
-43 -51 0
-43 -52 0
-44 -45 0
-44 -46 0
-44 -47 0
-44 -48 0
-44 -49 0
-44 -50 0
-44 -51 0
-44 -52 0
-45 -46 0
-45 -47 0
-45 -48 0
-45 -49 0
-45 -50 0
-45 -51 0
-45 -52 0
-46 -47 0
-46 -48 0
-46 -49 0
-46 -50 0
-46 -51 0
-46 -52 0
-47 -48 0
-47 -49 0
-47 -50 0
-47 -51 0
-47 -52 0
-48 -49 0
-48 -50 0
-48 -51 0
-48 -52 0
-49 -50 0
-49 -51 0
-49 -52 0
-50 -51 0
-50 -52 0
-51 -52 0
-258 236 0
-259 237 40 0
-260 238 41 0
-261 239 42 0
-262 240 43 0
-263 241 44 0
-264 242 45 0
-265 243 46 0
-266 244 47 0
-267 245 0
-268 246 48 0
-269 247 0
-270 248 0
-271 249 49 0
-272 250 50 0
-273 251 51 0
-274 252 52 0
-275 253 0
-276 254 0
-277 255 0
-278 256 0
-279 257 0
-53 -54 0
-53 -55 0
-53 -56 0
-53 -57 0
-53 -58 0
-53 -59 0
-53 -60 0
-53 -61 0
-53 -62 0
-53 -63 0
-53 -64 0
-53 -65 0
-54 -55 0
-54 -56 0
-54 -57 0
-54 -58 0
-54 -59 0
-54 -60 0
-54 -61 0
-54 -62 0
-54 -63 0
-54 -64 0
-54 -65 0
-55 -56 0
-55 -57 0
-55 -58 0
-55 -59 0
-55 -60 0
-55 -61 0
-55 -62 0
-55 -63 0
-55 -64 0
-55 -65 0
-56 -57 0
-56 -58 0
-56 -59 0
-56 -60 0
-56 -61 0
-56 -62 0
-56 -63 0
-56 -64 0
-56 -65 0
-57 -58 0
-57 -59 0
-57 -60 0
-57 -61 0
-57 -62 0
-57 -63 0
-57 -64 0
-57 -65 0
-58 -59 0
-58 -60 0
-58 -61 0
-58 -62 0
-58 -63 0
-58 -64 0
-58 -65 0
-59 -60 0
-59 -61 0
-59 -62 0
-59 -63 0
-59 -64 0
-59 -65 0
-60 -61 0
-60 -62 0
-60 -63 0
-60 -64 0
-60 -65 0
-61 -62 0
-61 -63 0
-61 -64 0
-61 -65 0
-62 -63 0
-62 -64 0
-62 -65 0
-63 -64 0
-63 -65 0
-64 -65 0
-280 258 0
-281 259 53 0
-282 260 54 0
-283 261 55 0
-284 262 56 0
-285 263 57 0
-286 264 58 0
-287 265 59 0
-288 266 60 0
-289 267 0
-290 268 61 0
-291 269 0
-292 270 0
-293 271 62 0
-294 272 63 0
-295 273 64 0
-296 274 65 0
-297 275 0
-298 276 0
-299 277 0
-300 278 0
-301 279 0
-66 -67 0
-66 -68 0
-66 -69 0
-66 -70 0
-66 -71 0
-66 -72 0
-66 -73 0
-66 -74 0
-66 -75 0
-66 -76 0
-66 -77 0
-66 -78 0
-67 -68 0
-67 -69 0
-67 -70 0
-67 -71 0
-67 -72 0
-67 -73 0
-67 -74 0
-67 -75 0
-67 -76 0
-67 -77 0
-67 -78 0
-68 -69 0
-68 -70 0
-68 -71 0
-68 -72 0
-68 -73 0
-68 -74 0
-68 -75 0
-68 -76 0
-68 -77 0
-68 -78 0
-69 -70 0
-69 -71 0
-69 -72 0
-69 -73 0
-69 -74 0
-69 -75 0
-69 -76 0
-69 -77 0
-69 -78 0
-70 -71 0
-70 -72 0
-70 -73 0
-70 -74 0
-70 -75 0
-70 -76 0
-70 -77 0
-70 -78 0
-71 -72 0
-71 -73 0
-71 -74 0
-71 -75 0
-71 -76 0
-71 -77 0
-71 -78 0
-72 -73 0
-72 -74 0
-72 -75 0
-72 -76 0
-72 -77 0
-72 -78 0
-73 -74 0
-73 -75 0
-73 -76 0
-73 -77 0
-73 -78 0
-74 -75 0
-74 -76 0
-74 -77 0
-74 -78 0
-75 -76 0
-75 -77 0
-75 -78 0
-76 -77 0
-76 -78 0
-77 -78 0
-302 280 0
-303 281 66 0
-304 282 67 0
-305 283 68 0
-306 284 69 0
-307 285 70 0
-308 286 71 0
-309 287 72 0
-310 288 73 0
-311 289 0
-312 290 74 0
-313 291 0
-314 292 0
-315 293 75 0
-316 294 76 0
-317 295 77 0
-318 296 78 0
-319 297 0
-320 298 0
-321 299 0
-322 300 0
-323 301 0
-79 -80 0
-79 -81 0
-79 -82 0
-79 -83 0
-79 -84 0
-79 -85 0
-79 -86 0
-79 -87 0
-79 -88 0
-79 -89 0
-79 -90 0
-79 -91 0
-80 -81 0
-80 -82 0
-80 -83 0
-80 -84 0
-80 -85 0
-80 -86 0
-80 -87 0
-80 -88 0
-80 -89 0
-80 -90 0
-80 -91 0
-81 -82 0
-81 -83 0
-81 -84 0
-81 -85 0
-81 -86 0
-81 -87 0
-81 -88 0
-81 -89 0
-81 -90 0
-81 -91 0
-82 -83 0
-82 -84 0
-82 -85 0
-82 -86 0
-82 -87 0
-82 -88 0
-82 -89 0
-82 -90 0
-82 -91 0
-83 -84 0
-83 -85 0
-83 -86 0
-83 -87 0
-83 -88 0
-83 -89 0
-83 -90 0
-83 -91 0
-84 -85 0
-84 -86 0
-84 -87 0
-84 -88 0
-84 -89 0
-84 -90 0
-84 -91 0
-85 -86 0
-85 -87 0
-85 -88 0
-85 -89 0
-85 -90 0
-85 -91 0
-86 -87 0
-86 -88 0
-86 -89 0
-86 -90 0
-86 -91 0
-87 -88 0
-87 -89 0
-87 -90 0
-87 -91 0
-88 -89 0
-88 -90 0
-88 -91 0
-89 -90 0
-89 -91 0
-90 -91 0
-324 302 0
-325 303 79 0
-326 304 80 0
-327 305 81 0
-328 306 82 0
-329 307 83 0
-330 308 84 0
-331 309 85 0
-332 310 86 0
-333 311 0
-334 312 87 0
-335 313 0
-336 314 0
-337 315 88 0
-338 316 89 0
-339 317 90 0
-340 318 91 0
-341 319 0
-342 320 0
-343 321 0
-344 322 0
-345 323 0
-92 -93 0
-92 -94 0
-92 -95 0
-92 -96 0
-92 -97 0
-92 -98 0
-92 -99 0
-92 -100 0
-92 -101 0
-92 -102 0
-92 -103 0
-92 -104 0
-93 -94 0
-93 -95 0
-93 -96 0
-93 -97 0
-93 -98 0
-93 -99 0
-93 -100 0
-93 -101 0
-93 -102 0
-93 -103 0
-93 -104 0
-94 -95 0
-94 -96 0
-94 -97 0
-94 -98 0
-94 -99 0
-94 -100 0
-94 -101 0
-94 -102 0
-94 -103 0
-94 -104 0
-95 -96 0
-95 -97 0
-95 -98 0
-95 -99 0
-95 -100 0
-95 -101 0
-95 -102 0
-95 -103 0
-95 -104 0
-96 -97 0
-96 -98 0
-96 -99 0
-96 -100 0
-96 -101 0
-96 -102 0
-96 -103 0
-96 -104 0
-97 -98 0
-97 -99 0
-97 -100 0
-97 -101 0
-97 -102 0
-97 -103 0
-97 -104 0
-98 -99 0
-98 -100 0
-98 -101 0
-98 -102 0
-98 -103 0
-98 -104 0
-99 -100 0
-99 -101 0
-99 -102 0
-99 -103 0
-99 -104 0
-100 -101 0
-100 -102 0
-100 -103 0
-100 -104 0
-101 -102 0
-101 -103 0
-101 -104 0
-102 -103 0
-102 -104 0
-103 -104 0
-346 324 0
-347 325 92 0
-348 326 93 0
-349 327 94 0
-350 328 95 0
-351 329 96 0
-352 330 97 0
-353 331 98 0
-354 332 99 0
-355 333 0
-356 334 100 0
-357 335 0
-358 336 0
-359 337 101 0
-360 338 102 0
-361 339 103 0
-362 340 104 0
-363 341 0
-364 342 0
-365 343 0
-366 344 0
-367 345 0
-105 -106 0
-105 -107 0
-105 -108 0
-105 -109 0
-105 -110 0
-105 -111 0
-105 -112 0
-105 -113 0
-105 -114 0
-105 -115 0
-105 -116 0
-105 -117 0
-106 -107 0
-106 -108 0
-106 -109 0
-106 -110 0
-106 -111 0
-106 -112 0
-106 -113 0
-106 -114 0
-106 -115 0
-106 -116 0
-106 -117 0
-107 -108 0
-107 -109 0
-107 -110 0
-107 -111 0
-107 -112 0
-107 -113 0
-107 -114 0
-107 -115 0
-107 -116 0
-107 -117 0
-108 -109 0
-108 -110 0
-108 -111 0
-108 -112 0
-108 -113 0
-108 -114 0
-108 -115 0
-108 -116 0
-108 -117 0
-109 -110 0
-109 -111 0
-109 -112 0
-109 -113 0
-109 -114 0
-109 -115 0
-109 -116 0
-109 -117 0
-110 -111 0
-110 -112 0
-110 -113 0
-110 -114 0
-110 -115 0
-110 -116 0
-110 -117 0
-111 -112 0
-111 -113 0
-111 -114 0
-111 -115 0
-111 -116 0
-111 -117 0
-112 -113 0
-112 -114 0
-112 -115 0
-112 -116 0
-112 -117 0
-113 -114 0
-113 -115 0
-113 -116 0
-113 -117 0
-114 -115 0
-114 -116 0
-114 -117 0
-115 -116 0
-115 -117 0
-116 -117 0
-368 346 0
-369 347 105 0
-370 348 106 0
-371 349 107 0
-372 350 108 0
-373 351 109 0
-374 352 110 0
-375 353 111 0
-376 354 112 0
-377 355 0
-378 356 113 0
-379 357 0
-380 358 0
-381 359 114 0
-382 360 115 0
-383 361 116 0
-384 362 117 0
-385 363 0
-386 364 0
-387 365 0
-388 366 0
-389 367 0
-118 -119 0
-118 -120 0
-118 -121 0
-118 -122 0
-118 -123 0
-118 -124 0
-118 -125 0
-118 -126 0
-118 -127 0
-118 -128 0
-118 -129 0
-118 -130 0
-119 -120 0
-119 -121 0
-119 -122 0
-119 -123 0
-119 -124 0
-119 -125 0
-119 -126 0
-119 -127 0
-119 -128 0
-119 -129 0
-119 -130 0
-120 -121 0
-120 -122 0
-120 -123 0
-120 -124 0
-120 -125 0
-120 -126 0
-120 -127 0
-120 -128 0
-120 -129 0
-120 -130 0
-121 -122 0
-121 -123 0
-121 -124 0
-121 -125 0
-121 -126 0
-121 -127 0
-121 -128 0
-121 -129 0
-121 -130 0
-122 -123 0
-122 -124 0
-122 -125 0
-122 -126 0
-122 -127 0
-122 -128 0
-122 -129 0
-122 -130 0
-123 -124 0
-123 -125 0
-123 -126 0
-123 -127 0
-123 -128 0
-123 -129 0
-123 -130 0
-124 -125 0
-124 -126 0
-124 -127 0
-124 -128 0
-124 -129 0
-124 -130 0
-125 -126 0
-125 -127 0
-125 -128 0
-125 -129 0
-125 -130 0
-126 -127 0
-126 -128 0
-126 -129 0
-126 -130 0
-127 -128 0
-127 -129 0
-127 -130 0
-128 -129 0
-128 -130 0
-129 -130 0
-390 368 0
-391 369 118 0
-392 370 119 0
-393 371 120 0
-394 372 121 0
-395 373 122 0
-396 374 123 0
-397 375 124 0
-398 376 125 0
-399 377 0
-400 378 126 0
-401 379 0
-402 380 0
-403 381 127 0
-404 382 128 0
-405 383 129 0
-406 384 130 0
-407 385 0
-408 386 0
-409 387 0
-410 388 0
-411 389 0
-131 -132 0
-131 -133 0
-131 -134 0
-131 -135 0
-131 -136 0
-131 -137 0
-131 -138 0
-131 -139 0
-131 -140 0
-131 -141 0
-131 -142 0
-131 -143 0
-132 -133 0
-132 -134 0
-132 -135 0
-132 -136 0
-132 -137 0
-132 -138 0
-132 -139 0
-132 -140 0
-132 -141 0
-132 -142 0
-132 -143 0
-133 -134 0
-133 -135 0
-133 -136 0
-133 -137 0
-133 -138 0
-133 -139 0
-133 -140 0
-133 -141 0
-133 -142 0
-133 -143 0
-134 -135 0
-134 -136 0
-134 -137 0
-134 -138 0
-134 -139 0
-134 -140 0
-134 -141 0
-134 -142 0
-134 -143 0
-135 -136 0
-135 -137 0
-135 -138 0
-135 -139 0
-135 -140 0
-135 -141 0
-135 -142 0
-135 -143 0
-136 -137 0
-136 -138 0
-136 -139 0
-136 -140 0
-136 -141 0
-136 -142 0
-136 -143 0
-137 -138 0
-137 -139 0
-137 -140 0
-137 -141 0
-137 -142 0
-137 -143 0
-138 -139 0
-138 -140 0
-138 -141 0
-138 -142 0
-138 -143 0
-139 -140 0
-139 -141 0
-139 -142 0
-139 -143 0
-140 -141 0
-140 -142 0
-140 -143 0
-141 -142 0
-141 -143 0
-142 -143 0
-412 390 0
-413 391 131 0
-414 392 132 0
-415 393 133 0
-416 394 134 0
-417 395 135 0
-418 396 136 0
-419 397 137 0
-420 398 138 0
-421 399 0
-422 400 139 0
-423 401 0
-424 402 0
-425 403 140 0
-426 404 141 0
-427 405 142 0
-428 406 143 0
-429 407 0
-430 408 0
-431 409 0
-432 410 0
-433 411 0
-144 -145 0
-144 -146 0
-144 -147 0
-144 -148 0
-144 -149 0
-144 -150 0
-144 -151 0
-144 -152 0
-144 -153 0
-144 -154 0
-144 -155 0
-144 -156 0
-145 -146 0
-145 -147 0
-145 -148 0
-145 -149 0
-145 -150 0
-145 -151 0
-145 -152 0
-145 -153 0
-145 -154 0
-145 -155 0
-145 -156 0
-146 -147 0
-146 -148 0
-146 -149 0
-146 -150 0
-146 -151 0
-146 -152 0
-146 -153 0
-146 -154 0
-146 -155 0
-146 -156 0
-147 -148 0
-147 -149 0
-147 -150 0
-147 -151 0
-147 -152 0
-147 -153 0
-147 -154 0
-147 -155 0
-147 -156 0
-148 -149 0
-148 -150 0
-148 -151 0
-148 -152 0
-148 -153 0
-148 -154 0
-148 -155 0
-148 -156 0
-149 -150 0
-149 -151 0
-149 -152 0
-149 -153 0
-149 -154 0
-149 -155 0
-149 -156 0
-150 -151 0
-150 -152 0
-150 -153 0
-150 -154 0
-150 -155 0
-150 -156 0
-151 -152 0
-151 -153 0
-151 -154 0
-151 -155 0
-151 -156 0
-152 -153 0
-152 -154 0
-152 -155 0
-152 -156 0
-153 -154 0
-153 -155 0
-153 -156 0
-154 -155 0
-154 -156 0
-155 -156 0
-434 412 0
-435 413 144 0
-436 414 145 0
-437 415 146 0
-438 416 147 0
-439 417 148 0
-440 418 149 0
-441 419 150 0
-442 420 151 0
-443 421 0
-444 422 152 0
-445 423 0
-446 424 0
-447 425 153 0
-448 426 154 0
-449 427 155 0
-450 428 156 0
-451 429 0
-452 430 0
-453 431 0
-454 432 0
-455 433 0
-157 -158 0
-157 -159 0
-157 -160 0
-157 -161 0
-157 -162 0
-157 -163 0
-157 -164 0
-157 -165 0
-157 -166 0
-157 -167 0
-157 -168 0
-157 -169 0
-158 -159 0
-158 -160 0
-158 -161 0
-158 -162 0
-158 -163 0
-158 -164 0
-158 -165 0
-158 -166 0
-158 -167 0
-158 -168 0
-158 -169 0
-159 -160 0
-159 -161 0
-159 -162 0
-159 -163 0
-159 -164 0
-159 -165 0
-159 -166 0
-159 -167 0
-159 -168 0
-159 -169 0
-160 -161 0
-160 -162 0
-160 -163 0
-160 -164 0
-160 -165 0
-160 -166 0
-160 -167 0
-160 -168 0
-160 -169 0
-161 -162 0
-161 -163 0
-161 -164 0
-161 -165 0
-161 -166 0
-161 -167 0
-161 -168 0
-161 -169 0
-162 -163 0
-162 -164 0
-162 -165 0
-162 -166 0
-162 -167 0
-162 -168 0
-162 -169 0
-163 -164 0
-163 -165 0
-163 -166 0
-163 -167 0
-163 -168 0
-163 -169 0
-164 -165 0
-164 -166 0
-164 -167 0
-164 -168 0
-164 -169 0
-165 -166 0
-165 -167 0
-165 -168 0
-165 -169 0
-166 -167 0
-166 -168 0
-166 -169 0
-167 -168 0
-167 -169 0
-168 -169 0
-456 434 0
-457 435 157 0
-458 436 158 0
-459 437 159 0
-460 438 160 0
-461 439 161 0
-462 440 162 0
-463 441 163 0
-464 442 164 0
-465 443 0
-466 444 165 0
-467 445 0
-468 446 0
-469 447 166 0
-470 448 167 0
-471 449 168 0
-472 450 169 0
-473 451 0
-474 452 0
-475 453 0
-476 454 0
-477 455 0
170 0
-171 0
-172 0
-173 0
-174 0
-175 0
-176 0
-177 0
-178 0
179 0
-180 0
181 0
182 0
-183 0
-184 0
-185 0
-186 0
187 0
188 0
189 0
190 0
191 0
1 14 27 40 53 66 79 92 105 118 131 144 157 0
2 15 28 41 54 67 80 93 106 119 132 145 158 0
3 16 29 42 55 68 81 94 107 120 133 146 159 0
4 17 30 43 56 69 82 95 108 121 134 147 160 0
5 18 31 44 57 70 83 96 109 122 135 148 161 0
6 19 32 45 58 71 84 97 110 123 136 149 162 0
7 20 33 46 59 72 85 98 111 124 137 150 163 0
8 21 34 47 60 73 86 99 112 125 138 151 164 0
9 22 35 48 61 74 87 100 113 126 139 152 165 0
10 23 36 49 62 75 88 101 114 127 140 153 166 0
11 24 37 50 63 76 89 102 115 128 141 154 167 0
12 25 38 51 64 77 90 103 116 129 142 155 168 0
13 26 39 52 65 78 91 104 117 130 143 156 169 0
-478 172 0
-478 191 0
-479 172 0
-479 191 0
-480 173 0
-480 190 0
-481 173 0
-481 190 0
-482 174 0
-482 189 0
-483 174 0
-483 189 0
-1 478 479 480 481 482 483 0
-484 171 0
-484 191 0
-485 171 0
-485 191 0
-2 484 485 0
-486 171 0
-486 190 0
-487 171 0
-487 190 0
-3 486 487 0
-488 171 0
-488 189 0
-489 171 0
-489 189 0
-4 488 489 0
-490 176 0
-490 188 0
-491 176 0
-491 188 0
-492 177 0
-492 187 0
-493 177 0
-493 187 0
-494 178 0
-494 182 0
-495 178 0
-495 182 0
-5 490 491 492 493 494 495 0
-496 175 0
-496 188 0
-497 175 0
-497 188 0
-498 178 0
-498 184 0
-499 178 0
-499 184 0
-6 496 497 498 499 0
-500 175 0
-500 187 0
-501 175 0
-501 187 0
-7 500 501 0
-502 170 0
-502 179 0
-503 170 0
-503 179 0
-504 175 0
-504 182 0
-505 175 0
-505 182 0
-506 176 0
-506 184 0
-507 176 0
-507 184 0
-8 502 503 504 505 506 507 0
-9 0
-508 182 0
-508 189 0
-509 182 0
-509 189 0
-510 186 0
-510 188 0
-511 186 0
-511 188 0
-10 508 509 510 511 0
-512 176 0
-512 178 0
-513 176 0
-513 178 0
-514 182 0
-514 188 0
-515 182 0
-515 188 0
-516 186 0
-516 189 0
-517 186 0
-517 189 0
-11 512 513 514 515 516 517 0
-518 186 0
-518 191 0
-519 186 0
-519 191 0
-12 518 519 0
-520 183 0
-520 188 0
-521 183 0
-521 188 0
-522 184 0
-522 189 0
-523 184 0
-523 189 0
-524 185 0
-524 191 0
-525 185 0
-525 191 0
-13 520 521 522 523 524 525 0
-526 194 0
-526 213 0
-527 194 0
-527 213 0
-528 195 0
-528 212 0
-529 195 0
-529 212 0
-530 196 0
-530 211 0
-531 196 0
-531 211 0
-14 526 527 528 529 530 531 0
-532 193 0
-532 213 0
-533 193 0
-533 213 0
-15 532 533 0
-534 193 0
-534 212 0
-535 193 0
-535 212 0
-16 534 535 0
-536 193 0
-536 211 0
-537 193 0
-537 211 0
-17 536 537 0
-538 198 0
-538 210 0
-539 198 0
-539 210 0
-540 199 0
-540 209 0
-541 199 0
-541 209 0
-542 200 0
-542 204 0
-543 200 0
-543 204 0
-18 538 539 540 541 542 543 0
-544 197 0
-544 210 0
-545 197 0
-545 210 0
-546 200 0
-546 206 0
-547 200 0
-547 206 0
-19 544 545 546 547 0
-548 197 0
-548 209 0
-549 197 0
-549 209 0
-20 548 549 0
-550 192 0
-550 201 0
-551 192 0
-551 201 0
-552 197 0
-552 204 0
-553 197 0
-553 204 0
-554 198 0
-554 206 0
-555 198 0
-555 206 0
-21 550 551 552 553 554 555 0
-22 0
-556 204 0
-556 211 0
-557 204 0
-557 211 0
-558 208 0
-558 210 0
-559 208 0
-559 210 0
-23 556 557 558 559 0
-560 198 0
-560 200 0
-561 198 0
-561 200 0
-562 204 0
-562 210 0
-563 204 0
-563 210 0
-564 208 0
-564 211 0
-565 208 0
-565 211 0
-24 560 561 562 563 564 565 0
-566 208 0
-566 213 0
-567 208 0
-567 213 0
-25 566 567 0
-568 205 0
-568 210 0
-569 205 0
-569 210 0
-570 206 0
-570 211 0
-571 206 0
-571 211 0
-572 207 0
-572 213 0
-573 207 0
-573 213 0
-26 568 569 570 571 572 573 0
-574 216 0
-574 235 0
-575 216 0
-575 235 0
-576 217 0
-576 234 0
-577 217 0
-577 234 0
-578 218 0
-578 233 0
-579 218 0
-579 233 0
-27 574 575 576 577 578 579 0
-580 215 0
-580 235 0
-581 215 0
-581 235 0
-28 580 581 0
-582 215 0
-582 234 0
-583 215 0
-583 234 0
-29 582 583 0
-584 215 0
-584 233 0
-585 215 0
-585 233 0
-30 584 585 0
-586 220 0
-586 232 0
-587 220 0
-587 232 0
-588 221 0
-588 231 0
-589 221 0
-589 231 0
-590 222 0
-590 226 0
-591 222 0
-591 226 0
-31 586 587 588 589 590 591 0
-592 219 0
-592 232 0
-593 219 0
-593 232 0
-594 222 0
-594 228 0
-595 222 0
-595 228 0
-32 592 593 594 595 0
-596 219 0
-596 231 0
-597 219 0
-597 231 0
-33 596 597 0
-598 214 0
-598 223 0
-599 214 0
-599 223 0
-600 219 0
-600 226 0
-601 219 0
-601 226 0
-602 220 0
-602 228 0
-603 220 0
-603 228 0
-34 598 599 600 601 602 603 0
-35 0
-604 226 0
-604 233 0
-605 226 0
-605 233 0
-606 230 0
-606 232 0
-607 230 0
-607 232 0
-36 604 605 606 607 0
-608 220 0
-608 222 0
-609 220 0
-609 222 0
-610 226 0
-610 232 0
-611 226 0
-611 232 0
-612 230 0
-612 233 0
-613 230 0
-613 233 0
-37 608 609 610 611 612 613 0
-614 230 0
-614 235 0
-615 230 0
-615 235 0
-38 614 615 0
-616 227 0
-616 232 0
-617 227 0
-617 232 0
-618 228 0
-618 233 0
-619 228 0
-619 233 0
-620 229 0
-620 235 0
-621 229 0
-621 235 0
-39 616 617 618 619 620 621 0
-622 238 0
-622 257 0
-623 238 0
-623 257 0
-624 239 0
-624 256 0
-625 239 0
-625 256 0
-626 240 0
-626 255 0
-627 240 0
-627 255 0
-40 622 623 624 625 626 627 0
-628 237 0
-628 257 0
-629 237 0
-629 257 0
-41 628 629 0
-630 237 0
-630 256 0
-631 237 0
-631 256 0
-42 630 631 0
-632 237 0
-632 255 0
-633 237 0
-633 255 0
-43 632 633 0
-634 242 0
-634 254 0
-635 242 0
-635 254 0
-636 243 0
-636 253 0
-637 243 0
-637 253 0
-638 244 0
-638 248 0
-639 244 0
-639 248 0
-44 634 635 636 637 638 639 0
-640 241 0
-640 254 0
-641 241 0
-641 254 0
-642 244 0
-642 250 0
-643 244 0
-643 250 0
-45 640 641 642 643 0
-644 241 0
-644 253 0
-645 241 0
-645 253 0
-46 644 645 0
-646 236 0
-646 245 0
-647 236 0
-647 245 0
-648 241 0
-648 248 0
-649 241 0
-649 248 0
-650 242 0
-650 250 0
-651 242 0
-651 250 0
-47 646 647 648 649 650 651 0
-48 0
-652 248 0
-652 255 0
-653 248 0
-653 255 0
-654 252 0
-654 254 0
-655 252 0
-655 254 0
-49 652 653 654 655 0
-656 242 0
-656 244 0
-657 242 0
-657 244 0
-658 248 0
-658 254 0
-659 248 0
-659 254 0
-660 252 0
-660 255 0
-661 252 0
-661 255 0
-50 656 657 658 659 660 661 0
-662 252 0
-662 257 0
-663 252 0
-663 257 0
-51 662 663 0
-664 249 0
-664 254 0
-665 249 0
-665 254 0
-666 250 0
-666 255 0
-667 250 0
-667 255 0
-668 251 0
-668 257 0
-669 251 0
-669 257 0
-52 664 665 666 667 668 669 0
-670 260 0
-670 279 0
-671 260 0
-671 279 0
-672 261 0
-672 278 0
-673 261 0
-673 278 0
-674 262 0
-674 277 0
-675 262 0
-675 277 0
-53 670 671 672 673 674 675 0
-676 259 0
-676 279 0
-677 259 0
-677 279 0
-54 676 677 0
-678 259 0
-678 278 0
-679 259 0
-679 278 0
-55 678 679 0
-680 259 0
-680 277 0
-681 259 0
-681 277 0
-56 680 681 0
-682 264 0
-682 276 0
-683 264 0
-683 276 0
-684 265 0
-684 275 0
-685 265 0
-685 275 0
-686 266 0
-686 270 0
-687 266 0
-687 270 0
-57 682 683 684 685 686 687 0
-688 263 0
-688 276 0
-689 263 0
-689 276 0
-690 266 0
-690 272 0
-691 266 0
-691 272 0
-58 688 689 690 691 0
-692 263 0
-692 275 0
-693 263 0
-693 275 0
-59 692 693 0
-694 258 0
-694 267 0
-695 258 0
-695 267 0
-696 263 0
-696 270 0
-697 263 0
-697 270 0
-698 264 0
-698 272 0
-699 264 0
-699 272 0
-60 694 695 696 697 698 699 0
-61 0
-700 270 0
-700 277 0
-701 270 0
-701 277 0
-702 274 0
-702 276 0
-703 274 0
-703 276 0
-62 700 701 702 703 0
-704 264 0
-704 266 0
-705 264 0
-705 266 0
-706 270 0
-706 276 0
-707 270 0
-707 276 0
-708 274 0
-708 277 0
-709 274 0
-709 277 0
-63 704 705 706 707 708 709 0
-710 274 0
-710 279 0
-711 274 0
-711 279 0
-64 710 711 0
-712 271 0
-712 276 0
-713 271 0
-713 276 0
-714 272 0
-714 277 0
-715 272 0
-715 277 0
-716 273 0
-716 279 0
-717 273 0
-717 279 0
-65 712 713 714 715 716 717 0
-718 282 0
-718 301 0
-719 282 0
-719 301 0
-720 283 0
-720 300 0
-721 283 0
-721 300 0
-722 284 0
-722 299 0
-723 284 0
-723 299 0
-66 718 719 720 721 722 723 0
-724 281 0
-724 301 0
-725 281 0
-725 301 0
-67 724 725 0
-726 281 0
-726 300 0
-727 281 0
-727 300 0
-68 726 727 0
-728 281 0
-728 299 0
-729 281 0
-729 299 0
-69 728 729 0
-730 286 0
-730 298 0
-731 286 0
-731 298 0
-732 287 0
-732 297 0
-733 287 0
-733 297 0
-734 288 0
-734 292 0
-735 288 0
-735 292 0
-70 730 731 732 733 734 735 0
-736 285 0
-736 298 0
-737 285 0
-737 298 0
-738 288 0
-738 294 0
-739 288 0
-739 294 0
-71 736 737 738 739 0
-740 285 0
-740 297 0
-741 285 0
-741 297 0
-72 740 741 0
-742 280 0
-742 289 0
-743 280 0
-743 289 0
-744 285 0
-744 292 0
-745 285 0
-745 292 0
-746 286 0
-746 294 0
-747 286 0
-747 294 0
-73 742 743 744 745 746 747 0
-74 0
-748 292 0
-748 299 0
-749 292 0
-749 299 0
-750 296 0
-750 298 0
-751 296 0
-751 298 0
-75 748 749 750 751 0
-752 286 0
-752 288 0
-753 286 0
-753 288 0
-754 292 0
-754 298 0
-755 292 0
-755 298 0
-756 296 0
-756 299 0
-757 296 0
-757 299 0
-76 752 753 754 755 756 757 0
-758 296 0
-758 301 0
-759 296 0
-759 301 0
-77 758 759 0
-760 293 0
-760 298 0
-761 293 0
-761 298 0
-762 294 0
-762 299 0
-763 294 0
-763 299 0
-764 295 0
-764 301 0
-765 295 0
-765 301 0
-78 760 761 762 763 764 765 0
-766 304 0
-766 323 0
-767 304 0
-767 323 0
-768 305 0
-768 322 0
-769 305 0
-769 322 0
-770 306 0
-770 321 0
-771 306 0
-771 321 0
-79 766 767 768 769 770 771 0
-772 303 0
-772 323 0
-773 303 0
-773 323 0
-80 772 773 0
-774 303 0
-774 322 0
-775 303 0
-775 322 0
-81 774 775 0
-776 303 0
-776 321 0
-777 303 0
-777 321 0
-82 776 777 0
-778 308 0
-778 320 0
-779 308 0
-779 320 0
-780 309 0
-780 319 0
-781 309 0
-781 319 0
-782 310 0
-782 314 0
-783 310 0
-783 314 0
-83 778 779 780 781 782 783 0
-784 307 0
-784 320 0
-785 307 0
-785 320 0
-786 310 0
-786 316 0
-787 310 0
-787 316 0
-84 784 785 786 787 0
-788 307 0
-788 319 0
-789 307 0
-789 319 0
-85 788 789 0
-790 302 0
-790 311 0
-791 302 0
-791 311 0
-792 307 0
-792 314 0
-793 307 0
-793 314 0
-794 308 0
-794 316 0
-795 308 0
-795 316 0
-86 790 791 792 793 794 795 0
-87 0
-796 314 0
-796 321 0
-797 314 0
-797 321 0
-798 318 0
-798 320 0
-799 318 0
-799 320 0
-88 796 797 798 799 0
-800 308 0
-800 310 0
-801 308 0
-801 310 0
-802 314 0
-802 320 0
-803 314 0
-803 320 0
-804 318 0
-804 321 0
-805 318 0
-805 321 0
-89 800 801 802 803 804 805 0
-806 318 0
-806 323 0
-807 318 0
-807 323 0
-90 806 807 0
-808 315 0
-808 320 0
-809 315 0
-809 320 0
-810 316 0
-810 321 0
-811 316 0
-811 321 0
-812 317 0
-812 323 0
-813 317 0
-813 323 0
-91 808 809 810 811 812 813 0
-814 326 0
-814 345 0
-815 326 0
-815 345 0
-816 327 0
-816 344 0
-817 327 0
-817 344 0
-818 328 0
-818 343 0
-819 328 0
-819 343 0
-92 814 815 816 817 818 819 0
-820 325 0
-820 345 0
-821 325 0
-821 345 0
-93 820 821 0
-822 325 0
-822 344 0
-823 325 0
-823 344 0
-94 822 823 0
-824 325 0
-824 343 0
-825 325 0
-825 343 0
-95 824 825 0
-826 330 0
-826 342 0
-827 330 0
-827 342 0
-828 331 0
-828 341 0
-829 331 0
-829 341 0
-830 332 0
-830 336 0
-831 332 0
-831 336 0
-96 826 827 828 829 830 831 0
-832 329 0
-832 342 0
-833 329 0
-833 342 0
-834 332 0
-834 338 0
-835 332 0
-835 338 0
-97 832 833 834 835 0
-836 329 0
-836 341 0
-837 329 0
-837 341 0
-98 836 837 0
-838 324 0
-838 333 0
-839 324 0
-839 333 0
-840 329 0
-840 336 0
-841 329 0
-841 336 0
-842 330 0
-842 338 0
-843 330 0
-843 338 0
-99 838 839 840 841 842 843 0
-100 0
-844 336 0
-844 343 0
-845 336 0
-845 343 0
-846 340 0
-846 342 0
-847 340 0
-847 342 0
-101 844 845 846 847 0
-848 330 0
-848 332 0
-849 330 0
-849 332 0
-850 336 0
-850 342 0
-851 336 0
-851 342 0
-852 340 0
-852 343 0
-853 340 0
-853 343 0
-102 848 849 850 851 852 853 0
-854 340 0
-854 345 0
-855 340 0
-855 345 0
-103 854 855 0
-856 337 0
-856 342 0
-857 337 0
-857 342 0
-858 338 0
-858 343 0
-859 338 0
-859 343 0
-860 339 0
-860 345 0
-861 339 0
-861 345 0
-104 856 857 858 859 860 861 0
-862 348 0
-862 367 0
-863 348 0
-863 367 0
-864 349 0
-864 366 0
-865 349 0
-865 366 0
-866 350 0
-866 365 0
-867 350 0
-867 365 0
-105 862 863 864 865 866 867 0
-868 347 0
-868 367 0
-869 347 0
-869 367 0
-106 868 869 0
-870 347 0
-870 366 0
-871 347 0
-871 366 0
-107 870 871 0
-872 347 0
-872 365 0
-873 347 0
-873 365 0
-108 872 873 0
-874 352 0
-874 364 0
-875 352 0
-875 364 0
-876 353 0
-876 363 0
-877 353 0
-877 363 0
-878 354 0
-878 358 0
-879 354 0
-879 358 0
-109 874 875 876 877 878 879 0
-880 351 0
-880 364 0
-881 351 0
-881 364 0
-882 354 0
-882 360 0
-883 354 0
-883 360 0
-110 880 881 882 883 0
-884 351 0
-884 363 0
-885 351 0
-885 363 0
-111 884 885 0
-886 346 0
-886 355 0
-887 346 0
-887 355 0
-888 351 0
-888 358 0
-889 351 0
-889 358 0
-890 352 0
-890 360 0
-891 352 0
-891 360 0
-112 886 887 888 889 890 891 0
-113 0
-892 358 0
-892 365 0
-893 358 0
-893 365 0
-894 362 0
-894 364 0
-895 362 0
-895 364 0
-114 892 893 894 895 0
-896 352 0
-896 354 0
-897 352 0
-897 354 0
-898 358 0
-898 364 0
-899 358 0
-899 364 0
-900 362 0
-900 365 0
-901 362 0
-901 365 0
-115 896 897 898 899 900 901 0
-902 362 0
-902 367 0
-903 362 0
-903 367 0
-116 902 903 0
-904 359 0
-904 364 0
-905 359 0
-905 364 0
-906 360 0
-906 365 0
-907 360 0
-907 365 0
-908 361 0
-908 367 0
-909 361 0
-909 367 0
-117 904 905 906 907 908 909 0
-910 370 0
-910 389 0
-911 370 0
-911 389 0
-912 371 0
-912 388 0
-913 371 0
-913 388 0
-914 372 0
-914 387 0
-915 372 0
-915 387 0
-118 910 911 912 913 914 915 0
-916 369 0
-916 389 0
-917 369 0
-917 389 0
-119 916 917 0
-918 369 0
-918 388 0
-919 369 0
-919 388 0
-120 918 919 0
-920 369 0
-920 387 0
-921 369 0
-921 387 0
-121 920 921 0
-922 374 0
-922 386 0
-923 374 0
-923 386 0
-924 375 0
-924 385 0
-925 375 0
-925 385 0
-926 376 0
-926 380 0
-927 376 0
-927 380 0
-122 922 923 924 925 926 927 0
-928 373 0
-928 386 0
-929 373 0
-929 386 0
-930 376 0
-930 382 0
-931 376 0
-931 382 0
-123 928 929 930 931 0
-932 373 0
-932 385 0
-933 373 0
-933 385 0
-124 932 933 0
-934 368 0
-934 377 0
-935 368 0
-935 377 0
-936 373 0
-936 380 0
-937 373 0
-937 380 0
-938 374 0
-938 382 0
-939 374 0
-939 382 0
-125 934 935 936 937 938 939 0
-126 0
-940 380 0
-940 387 0
-941 380 0
-941 387 0
-942 384 0
-942 386 0
-943 384 0
-943 386 0
-127 940 941 942 943 0
-944 374 0
-944 376 0
-945 374 0
-945 376 0
-946 380 0
-946 386 0
-947 380 0
-947 386 0
-948 384 0
-948 387 0
-949 384 0
-949 387 0
-128 944 945 946 947 948 949 0
-950 384 0
-950 389 0
-951 384 0
-951 389 0
-129 950 951 0
-952 381 0
-952 386 0
-953 381 0
-953 386 0
-954 382 0
-954 387 0
-955 382 0
-955 387 0
-956 383 0
-956 389 0
-957 383 0
-957 389 0
-130 952 953 954 955 956 957 0
-958 392 0
-958 411 0
-959 392 0
-959 411 0
-960 393 0
-960 410 0
-961 393 0
-961 410 0
-962 394 0
-962 409 0
-963 394 0
-963 409 0
-131 958 959 960 961 962 963 0
-964 391 0
-964 411 0
-965 391 0
-965 411 0
-132 964 965 0
-966 391 0
-966 410 0
-967 391 0
-967 410 0
-133 966 967 0
-968 391 0
-968 409 0
-969 391 0
-969 409 0
-134 968 969 0
-970 396 0
-970 408 0
-971 396 0
-971 408 0
-972 397 0
-972 407 0
-973 397 0
-973 407 0
-974 398 0
-974 402 0
-975 398 0
-975 402 0
-135 970 971 972 973 974 975 0
-976 395 0
-976 408 0
-977 395 0
-977 408 0
-978 398 0
-978 404 0
-979 398 0
-979 404 0
-136 976 977 978 979 0
-980 395 0
-980 407 0
-981 395 0
-981 407 0
-137 980 981 0
-982 390 0
-982 399 0
-983 390 0
-983 399 0
-984 395 0
-984 402 0
-985 395 0
-985 402 0
-986 396 0
-986 404 0
-987 396 0
-987 404 0
-138 982 983 984 985 986 987 0
-139 0
-988 402 0
-988 409 0
-989 402 0
-989 409 0
-990 406 0
-990 408 0
-991 406 0
-991 408 0
-140 988 989 990 991 0
-992 396 0
-992 398 0
-993 396 0
-993 398 0
-994 402 0
-994 408 0
-995 402 0
-995 408 0
-996 406 0
-996 409 0
-997 406 0
-997 409 0
-141 992 993 994 995 996 997 0
-998 406 0
-998 411 0
-999 406 0
-999 411 0
-142 998 999 0
-1000 403 0
-1000 408 0
-1001 403 0
-1001 408 0
-1002 404 0
-1002 409 0
-1003 404 0
-1003 409 0
-1004 405 0
-1004 411 0
-1005 405 0
-1005 411 0
-143 1000 1001 1002 1003 1004 1005 0
-1006 414 0
-1006 433 0
-1007 414 0
-1007 433 0
-1008 415 0
-1008 432 0
-1009 415 0
-1009 432 0
-1010 416 0
-1010 431 0
-1011 416 0
-1011 431 0
-144 1006 1007 1008 1009 1010 1011 0
-1012 413 0
-1012 433 0
-1013 413 0
-1013 433 0
-145 1012 1013 0
-1014 413 0
-1014 432 0
-1015 413 0
-1015 432 0
-146 1014 1015 0
-1016 413 0
-1016 431 0
-1017 413 0
-1017 431 0
-147 1016 1017 0
-1018 418 0
-1018 430 0
-1019 418 0
-1019 430 0
-1020 419 0
-1020 429 0
-1021 419 0
-1021 429 0
-1022 420 0
-1022 424 0
-1023 420 0
-1023 424 0
-148 1018 1019 1020 1021 1022 1023 0
-1024 417 0
-1024 430 0
-1025 417 0
-1025 430 0
-1026 420 0
-1026 426 0
-1027 420 0
-1027 426 0
-149 1024 1025 1026 1027 0
-1028 417 0
-1028 429 0
-1029 417 0
-1029 429 0
-150 1028 1029 0
-1030 412 0
-1030 421 0
-1031 412 0
-1031 421 0
-1032 417 0
-1032 424 0
-1033 417 0
-1033 424 0
-1034 418 0
-1034 426 0
-1035 418 0
-1035 426 0
-151 1030 1031 1032 1033 1034 1035 0
-152 0
-1036 424 0
-1036 431 0
-1037 424 0
-1037 431 0
-1038 428 0
-1038 430 0
-1039 428 0
-1039 430 0
-153 1036 1037 1038 1039 0
-1040 418 0
-1040 420 0
-1041 418 0
-1041 420 0
-1042 424 0
-1042 430 0
-1043 424 0
-1043 430 0
-1044 428 0
-1044 431 0
-1045 428 0
-1045 431 0
-154 1040 1041 1042 1043 1044 1045 0
-1046 428 0
-1046 433 0
-1047 428 0
-1047 433 0
-155 1046 1047 0
-1048 425 0
-1048 430 0
-1049 425 0
-1049 430 0
-1050 426 0
-1050 431 0
-1051 426 0
-1051 431 0
-1052 427 0
-1052 433 0
-1053 427 0
-1053 433 0
-156 1048 1049 1050 1051 1052 1053 0
-1054 436 0
-1054 455 0
-1055 436 0
-1055 455 0
-1056 437 0
-1056 454 0
-1057 437 0
-1057 454 0
-1058 438 0
-1058 453 0
-1059 438 0
-1059 453 0
-157 1054 1055 1056 1057 1058 1059 0
-1060 435 0
-1060 455 0
-1061 435 0
-1061 455 0
-158 1060 1061 0
-1062 435 0
-1062 454 0
-1063 435 0
-1063 454 0
-159 1062 1063 0
-1064 435 0
-1064 453 0
-1065 435 0
-1065 453 0
-160 1064 1065 0
-1066 440 0
-1066 452 0
-1067 440 0
-1067 452 0
-1068 441 0
-1068 451 0
-1069 441 0
-1069 451 0
-1070 442 0
-1070 446 0
-1071 442 0
-1071 446 0
-161 1066 1067 1068 1069 1070 1071 0
-1072 439 0
-1072 452 0
-1073 439 0
-1073 452 0
-1074 442 0
-1074 448 0
-1075 442 0
-1075 448 0
-162 1072 1073 1074 1075 0
-1076 439 0
-1076 451 0
-1077 439 0
-1077 451 0
-163 1076 1077 0
-1078 434 0
-1078 443 0
-1079 434 0
-1079 443 0
-1080 439 0
-1080 446 0
-1081 439 0
-1081 446 0
-1082 440 0
-1082 448 0
-1083 440 0
-1083 448 0
-164 1078 1079 1080 1081 1082 1083 0
-165 0
-1084 446 0
-1084 453 0
-1085 446 0
-1085 453 0
-1086 450 0
-1086 452 0
-1087 450 0
-1087 452 0
-166 1084 1085 1086 1087 0
-1088 440 0
-1088 442 0
-1089 440 0
-1089 442 0
-1090 446 0
-1090 452 0
-1091 446 0
-1091 452 0
-1092 450 0
-1092 453 0
-1093 450 0
-1093 453 0
-167 1088 1089 1090 1091 1092 1093 0
-1094 450 0
-1094 455 0
-1095 450 0
-1095 455 0
-168 1094 1095 0
-1096 447 0
-1096 452 0
-1097 447 0
-1097 452 0
-1098 448 0
-1098 453 0
-1099 448 0
-1099 453 0
-1100 449 0
-1100 455 0
-1101 449 0
-1101 455 0
-169 1096 1097 1098 1099 1100 1101 0
