p cnf 396 1440
-1 -2 0
-1 -3 0
-1 -4 0
-1 -5 0
-1 -6 0
-1 -7 0
-1 -8 0
-1 -9 0
-1 -10 0
-1 -11 0
-1 -12 0
-2 -3 0
-2 -4 0
-2 -5 0
-2 -6 0
-2 -7 0
-2 -8 0
-2 -9 0
-2 -10 0
-2 -11 0
-2 -12 0
-3 -4 0
-3 -5 0
-3 -6 0
-3 -7 0
-3 -8 0
-3 -9 0
-3 -10 0
-3 -11 0
-3 -12 0
-4 -5 0
-4 -6 0
-4 -7 0
-4 -8 0
-4 -9 0
-4 -10 0
-4 -11 0
-4 -12 0
-5 -6 0
-5 -7 0
-5 -8 0
-5 -9 0
-5 -10 0
-5 -11 0
-5 -12 0
-6 -7 0
-6 -8 0
-6 -9 0
-6 -10 0
-6 -11 0
-6 -12 0
-7 -8 0
-7 -9 0
-7 -10 0
-7 -11 0
-7 -12 0
-8 -9 0
-8 -10 0
-8 -11 0
-8 -12 0
-9 -10 0
-9 -11 0
-9 -12 0
-10 -11 0
-10 -12 0
-11 -12 0
-13 -14 0
-13 -15 0
-13 -16 0
-13 -17 0
-13 -18 0
-13 -19 0
-13 -20 0
-13 -21 0
-13 -22 0
-13 -23 0
-13 -24 0
-14 -15 0
-14 -16 0
-14 -17 0
-14 -18 0
-14 -19 0
-14 -20 0
-14 -21 0
-14 -22 0
-14 -23 0
-14 -24 0
-15 -16 0
-15 -17 0
-15 -18 0
-15 -19 0
-15 -20 0
-15 -21 0
-15 -22 0
-15 -23 0
-15 -24 0
-16 -17 0
-16 -18 0
-16 -19 0
-16 -20 0
-16 -21 0
-16 -22 0
-16 -23 0
-16 -24 0
-17 -18 0
-17 -19 0
-17 -20 0
-17 -21 0
-17 -22 0
-17 -23 0
-17 -24 0
-18 -19 0
-18 -20 0
-18 -21 0
-18 -22 0
-18 -23 0
-18 -24 0
-19 -20 0
-19 -21 0
-19 -22 0
-19 -23 0
-19 -24 0
-20 -21 0
-20 -22 0
-20 -23 0
-20 -24 0
-21 -22 0
-21 -23 0
-21 -24 0
-22 -23 0
-22 -24 0
-23 -24 0
-25 -26 0
-25 -27 0
-25 -28 0
-25 -29 0
-25 -30 0
-25 -31 0
-25 -32 0
-25 -33 0
-25 -34 0
-25 -35 0
-25 -36 0
-26 -27 0
-26 -28 0
-26 -29 0
-26 -30 0
-26 -31 0
-26 -32 0
-26 -33 0
-26 -34 0
-26 -35 0
-26 -36 0
-27 -28 0
-27 -29 0
-27 -30 0
-27 -31 0
-27 -32 0
-27 -33 0
-27 -34 0
-27 -35 0
-27 -36 0
-28 -29 0
-28 -30 0
-28 -31 0
-28 -32 0
-28 -33 0
-28 -34 0
-28 -35 0
-28 -36 0
-29 -30 0
-29 -31 0
-29 -32 0
-29 -33 0
-29 -34 0
-29 -35 0
-29 -36 0
-30 -31 0
-30 -32 0
-30 -33 0
-30 -34 0
-30 -35 0
-30 -36 0
-31 -32 0
-31 -33 0
-31 -34 0
-31 -35 0
-31 -36 0
-32 -33 0
-32 -34 0
-32 -35 0
-32 -36 0
-33 -34 0
-33 -35 0
-33 -36 0
-34 -35 0
-34 -36 0
-35 -36 0
-37 -38 0
-37 -39 0
-37 -40 0
-37 -41 0
-37 -42 0
-37 -43 0
-37 -44 0
-37 -45 0
-37 -46 0
-37 -47 0
-37 -48 0
-38 -39 0
-38 -40 0
-38 -41 0
-38 -42 0
-38 -43 0
-38 -44 0
-38 -45 0
-38 -46 0
-38 -47 0
-38 -48 0
-39 -40 0
-39 -41 0
-39 -42 0
-39 -43 0
-39 -44 0
-39 -45 0
-39 -46 0
-39 -47 0
-39 -48 0
-40 -41 0
-40 -42 0
-40 -43 0
-40 -44 0
-40 -45 0
-40 -46 0
-40 -47 0
-40 -48 0
-41 -42 0
-41 -43 0
-41 -44 0
-41 -45 0
-41 -46 0
-41 -47 0
-41 -48 0
-42 -43 0
-42 -44 0
-42 -45 0
-42 -46 0
-42 -47 0
-42 -48 0
-43 -44 0
-43 -45 0
-43 -46 0
-43 -47 0
-43 -48 0
-44 -45 0
-44 -46 0
-44 -47 0
-44 -48 0
-45 -46 0
-45 -47 0
-45 -48 0
-46 -47 0
-46 -48 0
-47 -48 0
-49 -50 0
-49 -51 0
-49 -52 0
-49 -53 0
-49 -54 0
-49 -55 0
-49 -56 0
-49 -57 0
-49 -58 0
-49 -59 0
-49 -60 0
-50 -51 0
-50 -52 0
-50 -53 0
-50 -54 0
-50 -55 0
-50 -56 0
-50 -57 0
-50 -58 0
-50 -59 0
-50 -60 0
-51 -52 0
-51 -53 0
-51 -54 0
-51 -55 0
-51 -56 0
-51 -57 0
-51 -58 0
-51 -59 0
-51 -60 0
-52 -53 0
-52 -54 0
-52 -55 0
-52 -56 0
-52 -57 0
-52 -58 0
-52 -59 0
-52 -60 0
-53 -54 0
-53 -55 0
-53 -56 0
-53 -57 0
-53 -58 0
-53 -59 0
-53 -60 0
-54 -55 0
-54 -56 0
-54 -57 0
-54 -58 0
-54 -59 0
-54 -60 0
-55 -56 0
-55 -57 0
-55 -58 0
-55 -59 0
-55 -60 0
-56 -57 0
-56 -58 0
-56 -59 0
-56 -60 0
-57 -58 0
-57 -59 0
-57 -60 0
-58 -59 0
-58 -60 0
-59 -60 0
-61 -62 0
-61 -63 0
-61 -64 0
-61 -65 0
-61 -66 0
-61 -67 0
-61 -68 0
-61 -69 0
-61 -70 0
-61 -71 0
-61 -72 0
-62 -63 0
-62 -64 0
-62 -65 0
-62 -66 0
-62 -67 0
-62 -68 0
-62 -69 0
-62 -70 0
-62 -71 0
-62 -72 0
-63 -64 0
-63 -65 0
-63 -66 0
-63 -67 0
-63 -68 0
-63 -69 0
-63 -70 0
-63 -71 0
-63 -72 0
-64 -65 0
-64 -66 0
-64 -67 0
-64 -68 0
-64 -69 0
-64 -70 0
-64 -71 0
-64 -72 0
-65 -66 0
-65 -67 0
-65 -68 0
-65 -69 0
-65 -70 0
-65 -71 0
-65 -72 0
-66 -67 0
-66 -68 0
-66 -69 0
-66 -70 0
-66 -71 0
-66 -72 0
-67 -68 0
-67 -69 0
-67 -70 0
-67 -71 0
-67 -72 0
-68 -69 0
-68 -70 0
-68 -71 0
-68 -72 0
-69 -70 0
-69 -71 0
-69 -72 0
-70 -71 0
-70 -72 0
-71 -72 0
-73 -74 0
-73 -75 0
-73 -76 0
-73 -77 0
-73 -78 0
-73 -79 0
-73 -80 0
-73 -81 0
-73 -82 0
-73 -83 0
-73 -84 0
-74 -75 0
-74 -76 0
-74 -77 0
-74 -78 0
-74 -79 0
-74 -80 0
-74 -81 0
-74 -82 0
-74 -83 0
-74 -84 0
-75 -76 0
-75 -77 0
-75 -78 0
-75 -79 0
-75 -80 0
-75 -81 0
-75 -82 0
-75 -83 0
-75 -84 0
-76 -77 0
-76 -78 0
-76 -79 0
-76 -80 0
-76 -81 0
-76 -82 0
-76 -83 0
-76 -84 0
-77 -78 0
-77 -79 0
-77 -80 0
-77 -81 0
-77 -82 0
-77 -83 0
-77 -84 0
-78 -79 0
-78 -80 0
-78 -81 0
-78 -82 0
-78 -83 0
-78 -84 0
-79 -80 0
-79 -81 0
-79 -82 0
-79 -83 0
-79 -84 0
-80 -81 0
-80 -82 0
-80 -83 0
-80 -84 0
-81 -82 0
-81 -83 0
-81 -84 0
-82 -83 0
-82 -84 0
-83 -84 0
-85 -86 0
-85 -87 0
-85 -88 0
-85 -89 0
-85 -90 0
-85 -91 0
-85 -92 0
-85 -93 0
-85 -94 0
-85 -95 0
-85 -96 0
-86 -87 0
-86 -88 0
-86 -89 0
-86 -90 0
-86 -91 0
-86 -92 0
-86 -93 0
-86 -94 0
-86 -95 0
-86 -96 0
-87 -88 0
-87 -89 0
-87 -90 0
-87 -91 0
-87 -92 0
-87 -93 0
-87 -94 0
-87 -95 0
-87 -96 0
-88 -89 0
-88 -90 0
-88 -91 0
-88 -92 0
-88 -93 0
-88 -94 0
-88 -95 0
-88 -96 0
-89 -90 0
-89 -91 0
-89 -92 0
-89 -93 0
-89 -94 0
-89 -95 0
-89 -96 0
-90 -91 0
-90 -92 0
-90 -93 0
-90 -94 0
-90 -95 0
-90 -96 0
-91 -92 0
-91 -93 0
-91 -94 0
-91 -95 0
-91 -96 0
-92 -93 0
-92 -94 0
-92 -95 0
-92 -96 0
-93 -94 0
-93 -95 0
-93 -96 0
-94 -95 0
-94 -96 0
-95 -96 0
-97 -98 0
-97 -99 0
-97 -100 0
-97 -101 0
-97 -102 0
-97 -103 0
-97 -104 0
-97 -105 0
-97 -106 0
-97 -107 0
-97 -108 0
-98 -99 0
-98 -100 0
-98 -101 0
-98 -102 0
-98 -103 0
-98 -104 0
-98 -105 0
-98 -106 0
-98 -107 0
-98 -108 0
-99 -100 0
-99 -101 0
-99 -102 0
-99 -103 0
-99 -104 0
-99 -105 0
-99 -106 0
-99 -107 0
-99 -108 0
-100 -101 0
-100 -102 0
-100 -103 0
-100 -104 0
-100 -105 0
-100 -106 0
-100 -107 0
-100 -108 0
-101 -102 0
-101 -103 0
-101 -104 0
-101 -105 0
-101 -106 0
-101 -107 0
-101 -108 0
-102 -103 0
-102 -104 0
-102 -105 0
-102 -106 0
-102 -107 0
-102 -108 0
-103 -104 0
-103 -105 0
-103 -106 0
-103 -107 0
-103 -108 0
-104 -105 0
-104 -106 0
-104 -107 0
-104 -108 0
-105 -106 0
-105 -107 0
-105 -108 0
-106 -107 0
-106 -108 0
-107 -108 0
-109 -110 0
-109 -111 0
-109 -112 0
-109 -113 0
-109 -114 0
-109 -115 0
-109 -116 0
-109 -117 0
-109 -118 0
-109 -119 0
-109 -120 0
-110 -111 0
-110 -112 0
-110 -113 0
-110 -114 0
-110 -115 0
-110 -116 0
-110 -117 0
-110 -118 0
-110 -119 0
-110 -120 0
-111 -112 0
-111 -113 0
-111 -114 0
-111 -115 0
-111 -116 0
-111 -117 0
-111 -118 0
-111 -119 0
-111 -120 0
-112 -113 0
-112 -114 0
-112 -115 0
-112 -116 0
-112 -117 0
-112 -118 0
-112 -119 0
-112 -120 0
-113 -114 0
-113 -115 0
-113 -116 0
-113 -117 0
-113 -118 0
-113 -119 0
-113 -120 0
-114 -115 0
-114 -116 0
-114 -117 0
-114 -118 0
-114 -119 0
-114 -120 0
-115 -116 0
-115 -117 0
-115 -118 0
-115 -119 0
-115 -120 0
-116 -117 0
-116 -118 0
-116 -119 0
-116 -120 0
-117 -118 0
-117 -119 0
-117 -120 0
-118 -119 0
-118 -120 0
-119 -120 0
-121 -122 0
-121 -123 0
-121 -124 0
-121 -125 0
-121 -126 0
-121 -127 0
-121 -128 0
-121 -129 0
-121 -130 0
-121 -131 0
-121 -132 0
-122 -123 0
-122 -124 0
-122 -125 0
-122 -126 0
-122 -127 0
-122 -128 0
-122 -129 0
-122 -130 0
-122 -131 0
-122 -132 0
-123 -124 0
-123 -125 0
-123 -126 0
-123 -127 0
-123 -128 0
-123 -129 0
-123 -130 0
-123 -131 0
-123 -132 0
-124 -125 0
-124 -126 0
-124 -127 0
-124 -128 0
-124 -129 0
-124 -130 0
-124 -131 0
-124 -132 0
-125 -126 0
-125 -127 0
-125 -128 0
-125 -129 0
-125 -130 0
-125 -131 0
-125 -132 0
-126 -127 0
-126 -128 0
-126 -129 0
-126 -130 0
-126 -131 0
-126 -132 0
-127 -128 0
-127 -129 0
-127 -130 0
-127 -131 0
-127 -132 0
-128 -129 0
-128 -130 0
-128 -131 0
-128 -132 0
-129 -130 0
-129 -131 0
-129 -132 0
-130 -131 0
-130 -132 0
-131 -132 0
-133 -134 0
-133 -135 0
-133 -136 0
-133 -137 0
-133 -138 0
-133 -139 0
-133 -140 0
-133 -141 0
-133 -142 0
-133 -143 0
-133 -144 0
-134 -135 0
-134 -136 0
-134 -137 0
-134 -138 0
-134 -139 0
-134 -140 0
-134 -141 0
-134 -142 0
-134 -143 0
-134 -144 0
-135 -136 0
-135 -137 0
-135 -138 0
-135 -139 0
-135 -140 0
-135 -141 0
-135 -142 0
-135 -143 0
-135 -144 0
-136 -137 0
-136 -138 0
-136 -139 0
-136 -140 0
-136 -141 0
-136 -142 0
-136 -143 0
-136 -144 0
-137 -138 0
-137 -139 0
-137 -140 0
-137 -141 0
-137 -142 0
-137 -143 0
-137 -144 0
-138 -139 0
-138 -140 0
-138 -141 0
-138 -142 0
-138 -143 0
-138 -144 0
-139 -140 0
-139 -141 0
-139 -142 0
-139 -143 0
-139 -144 0
-140 -141 0
-140 -142 0
-140 -143 0
-140 -144 0
-141 -142 0
-141 -143 0
-141 -144 0
-142 -143 0
-142 -144 0
-143 -144 0
1 13 25 37 49 61 73 85 97 109 121 133 0
2 14 26 38 50 62 74 86 98 110 122 134 0
3 15 27 39 51 63 75 87 99 111 123 135 0
4 16 28 40 52 64 76 88 100 112 124 136 0
5 17 29 41 53 65 77 89 101 113 125 137 0
6 18 30 42 54 66 78 90 102 114 126 138 0
7 19 31 43 55 67 79 91 103 115 127 139 0
8 20 32 44 56 68 80 92 104 116 128 140 0
9 21 33 45 57 69 81 93 105 117 129 141 0
10 22 34 46 58 70 82 94 106 118 130 142 0
11 23 35 47 59 71 83 95 107 119 131 143 0
12 24 36 48 60 72 84 96 108 120 132 144 0
-1 145 146 147 0
-145 1 0
-146 1 0
-147 1 0
-2 148 0
-148 2 0
-3 149 150 0
-149 3 0
-150 3 0
-4 151 152 153 0
-151 4 0
-152 4 0
-153 4 0
-5 154 155 0
-154 5 0
-155 5 0
-6 156 157 0
-156 6 0
-157 6 0
-7 158 159 0
-158 7 0
-159 7 0
-8 160 0
-160 8 0
-9 161 162 0
-161 9 0
-162 9 0
-10 163 0
-163 10 0
-11 0
-12 164 165 0
-164 12 0
-165 12 0
-13 166 167 168 0
-166 13 0
-167 13 0
-168 13 0
-14 169 0
-169 14 0
-15 170 171 0
-170 15 0
-171 15 0
-16 172 173 174 0
-172 16 0
-173 16 0
-174 16 0
-17 175 176 0
-175 17 0
-176 17 0
-18 177 178 0
-177 18 0
-178 18 0
-19 179 180 0
-179 19 0
-180 19 0
-20 181 0
-181 20 0
-21 182 183 0
-182 21 0
-183 21 0
-22 184 0
-184 22 0
-23 0
-24 185 186 0
-185 24 0
-186 24 0
-25 187 188 189 0
-187 25 0
-188 25 0
-189 25 0
-26 190 0
-190 26 0
-27 191 192 0
-191 27 0
-192 27 0
-28 193 194 195 0
-193 28 0
-194 28 0
-195 28 0
-29 196 197 0
-196 29 0
-197 29 0
-30 198 199 0
-198 30 0
-199 30 0
-31 200 201 0
-200 31 0
-201 31 0
-32 202 0
-202 32 0
-33 203 204 0
-203 33 0
-204 33 0
-34 205 0
-205 34 0
-35 0
-36 206 207 0
-206 36 0
-207 36 0
-37 208 209 210 0
-208 37 0
-209 37 0
-210 37 0
-38 211 0
-211 38 0
-39 212 213 0
-212 39 0
-213 39 0
-40 214 215 216 0
-214 40 0
-215 40 0
-216 40 0
-41 217 218 0
-217 41 0
-218 41 0
-42 219 220 0
-219 42 0
-220 42 0
-43 221 222 0
-221 43 0
-222 43 0
-44 223 0
-223 44 0
-45 224 225 0
-224 45 0
-225 45 0
-46 226 0
-226 46 0
-47 0
-48 227 228 0
-227 48 0
-228 48 0
-49 229 230 231 0
-229 49 0
-230 49 0
-231 49 0
-50 232 0
-232 50 0
-51 233 234 0
-233 51 0
-234 51 0
-52 235 236 237 0
-235 52 0
-236 52 0
-237 52 0
-53 238 239 0
-238 53 0
-239 53 0
-54 240 241 0
-240 54 0
-241 54 0
-55 242 243 0
-242 55 0
-243 55 0
-56 244 0
-244 56 0
-57 245 246 0
-245 57 0
-246 57 0
-58 247 0
-247 58 0
-59 0
-60 248 249 0
-248 60 0
-249 60 0
-61 250 251 252 0
-250 61 0
-251 61 0
-252 61 0
-62 253 0
-253 62 0
-63 254 255 0
-254 63 0
-255 63 0
-64 256 257 258 0
-256 64 0
-257 64 0
-258 64 0
-65 259 260 0
-259 65 0
-260 65 0
-66 261 262 0
-261 66 0
-262 66 0
-67 263 264 0
-263 67 0
-264 67 0
-68 265 0
-265 68 0
-69 266 267 0
-266 69 0
-267 69 0
-70 268 0
-268 70 0
-71 0
-72 269 270 0
-269 72 0
-270 72 0
-73 271 272 273 0
-271 73 0
-272 73 0
-273 73 0
-74 274 0
-274 74 0
-75 275 276 0
-275 75 0
-276 75 0
-76 277 278 279 0
-277 76 0
-278 76 0
-279 76 0
-77 280 281 0
-280 77 0
-281 77 0
-78 282 283 0
-282 78 0
-283 78 0
-79 284 285 0
-284 79 0
-285 79 0
-80 286 0
-286 80 0
-81 287 288 0
-287 81 0
-288 81 0
-82 289 0
-289 82 0
-83 0
-84 290 291 0
-290 84 0
-291 84 0
-85 292 293 294 0
-292 85 0
-293 85 0
-294 85 0
-86 295 0
-295 86 0
-87 296 297 0
-296 87 0
-297 87 0
-88 298 299 300 0
-298 88 0
-299 88 0
-300 88 0
-89 301 302 0
-301 89 0
-302 89 0
-90 303 304 0
-303 90 0
-304 90 0
-91 305 306 0
-305 91 0
-306 91 0
-92 307 0
-307 92 0
-93 308 309 0
-308 93 0
-309 93 0
-94 310 0
-310 94 0
-95 0
-96 311 312 0
-311 96 0
-312 96 0
-97 313 314 315 0
-313 97 0
-314 97 0
-315 97 0
-98 316 0
-316 98 0
-99 317 318 0
-317 99 0
-318 99 0
-100 319 320 321 0
-319 100 0
-320 100 0
-321 100 0
-101 322 323 0
-322 101 0
-323 101 0
-102 324 325 0
-324 102 0
-325 102 0
-103 326 327 0
-326 103 0
-327 103 0
-104 328 0
-328 104 0
-105 329 330 0
-329 105 0
-330 105 0
-106 331 0
-331 106 0
-107 0
-108 332 333 0
-332 108 0
-333 108 0
-109 334 335 336 0
-334 109 0
-335 109 0
-336 109 0
-110 337 0
-337 110 0
-111 338 339 0
-338 111 0
-339 111 0
-112 340 341 342 0
-340 112 0
-341 112 0
-342 112 0
-113 343 344 0
-343 113 0
-344 113 0
-114 345 346 0
-345 114 0
-346 114 0
-115 347 348 0
-347 115 0
-348 115 0
-116 349 0
-349 116 0
-117 350 351 0
-350 117 0
-351 117 0
-118 352 0
-352 118 0
-119 0
-120 353 354 0
-353 120 0
-354 120 0
-121 355 356 357 0
-355 121 0
-356 121 0
-357 121 0
-122 358 0
-358 122 0
-123 359 360 0
-359 123 0
-360 123 0
-124 361 362 363 0
-361 124 0
-362 124 0
-363 124 0
-125 364 365 0
-364 125 0
-365 125 0
-126 366 367 0
-366 126 0
-367 126 0
-127 368 369 0
-368 127 0
-369 127 0
-128 370 0
-370 128 0
-129 371 372 0
-371 129 0
-372 129 0
-130 373 0
-373 130 0
-131 0
-132 374 375 0
-374 132 0
-375 132 0
-133 376 377 378 0
-376 133 0
-377 133 0
-378 133 0
-134 379 0
-379 134 0
-135 380 381 0
-380 135 0
-381 135 0
-136 382 383 384 0
-382 136 0
-383 136 0
-384 136 0
-137 385 386 0
-385 137 0
-386 137 0
-138 387 388 0
-387 138 0
-388 138 0
-139 389 390 0
-389 139 0
-390 139 0
-140 391 0
-391 140 0
-141 392 393 0
-392 141 0
-393 141 0
-142 394 0
-394 142 0
-143 0
-144 395 396 0
-395 144 0
-396 144 0
-145 0
-146 0
-147 0
-148 0
-149 0
-150 0
-151 0
-152 0
-153 0
-154 0
-155 0
-156 0
-157 0
-158 0
-159 0
-160 0
-161 0
-162 0
-163 0
-164 0
-166 3 0
-167 5 0
-168 9 0
-169 4 0
-170 1 0
-171 4 0
-172 2 0
-173 3 0
-174 10 0
-175 1 0
-176 6 0
-177 5 0
-178 7 0
-179 6 0
-180 8 0
-181 7 0
-182 1 0
-183 12 0
-184 4 0
-185 9 0
-187 3 15 0
-188 5 17 0
-189 9 21 0
-190 4 16 0
-191 1 13 0
-192 4 16 0
-193 2 14 0
-194 3 15 0
-195 10 22 0
-196 1 13 0
-197 6 18 0
-198 5 17 0
-199 7 19 0
-200 6 18 0
-201 8 20 0
-202 7 19 0
-203 1 13 0
-204 12 24 0
-205 4 16 0
-206 9 21 0
-208 3 15 27 0
-209 5 17 29 0
-210 9 21 33 0
-211 4 16 28 0
-212 1 13 25 0
-213 4 16 28 0
-214 2 14 26 0
-215 3 15 27 0
-216 10 22 34 0
-217 1 13 25 0
-218 6 18 30 0
-219 5 17 29 0
-220 7 19 31 0
-221 6 18 30 0
-222 8 20 32 0
-223 7 19 31 0
-224 1 13 25 0
-225 12 24 36 0
-226 4 16 28 0
-227 9 21 33 0
-229 3 15 27 39 0
-230 5 17 29 41 0
-231 9 21 33 45 0
-232 4 16 28 40 0
-233 1 13 25 37 0
-234 4 16 28 40 0
-235 2 14 26 38 0
-236 3 15 27 39 0
-237 10 22 34 46 0
-238 1 13 25 37 0
-239 6 18 30 42 0
-240 5 17 29 41 0
-241 7 19 31 43 0
-242 6 18 30 42 0
-243 8 20 32 44 0
-244 7 19 31 43 0
-245 1 13 25 37 0
-246 12 24 36 48 0
-247 4 16 28 40 0
-248 9 21 33 45 0
-250 3 15 27 39 51 0
-251 5 17 29 41 53 0
-252 9 21 33 45 57 0
-253 4 16 28 40 52 0
-254 1 13 25 37 49 0
-255 4 16 28 40 52 0
-256 2 14 26 38 50 0
-257 3 15 27 39 51 0
-258 10 22 34 46 58 0
-259 1 13 25 37 49 0
-260 6 18 30 42 54 0
-261 5 17 29 41 53 0
-262 7 19 31 43 55 0
-263 6 18 30 42 54 0
-264 8 20 32 44 56 0
-265 7 19 31 43 55 0
-266 1 13 25 37 49 0
-267 12 24 36 48 60 0
-268 4 16 28 40 52 0
-269 9 21 33 45 57 0
-271 3 15 27 39 51 63 0
-272 5 17 29 41 53 65 0
-273 9 21 33 45 57 69 0
-274 4 16 28 40 52 64 0
-275 1 13 25 37 49 61 0
-276 4 16 28 40 52 64 0
-277 2 14 26 38 50 62 0
-278 3 15 27 39 51 63 0
-279 10 22 34 46 58 70 0
-280 1 13 25 37 49 61 0
-281 6 18 30 42 54 66 0
-282 5 17 29 41 53 65 0
-283 7 19 31 43 55 67 0
-284 6 18 30 42 54 66 0
-285 8 20 32 44 56 68 0
-286 7 19 31 43 55 67 0
-287 1 13 25 37 49 61 0
-288 12 24 36 48 60 72 0
-289 4 16 28 40 52 64 0
-290 9 21 33 45 57 69 0
-292 3 15 27 39 51 63 75 0
-293 5 17 29 41 53 65 77 0
-294 9 21 33 45 57 69 81 0
-295 4 16 28 40 52 64 76 0
-296 1 13 25 37 49 61 73 0
-297 4 16 28 40 52 64 76 0
-298 2 14 26 38 50 62 74 0
-299 3 15 27 39 51 63 75 0
-300 10 22 34 46 58 70 82 0
-301 1 13 25 37 49 61 73 0
-302 6 18 30 42 54 66 78 0
-303 5 17 29 41 53 65 77 0
-304 7 19 31 43 55 67 79 0
-305 6 18 30 42 54 66 78 0
-306 8 20 32 44 56 68 80 0
-307 7 19 31 43 55 67 79 0
-308 1 13 25 37 49 61 73 0
-309 12 24 36 48 60 72 84 0
-310 4 16 28 40 52 64 76 0
-311 9 21 33 45 57 69 81 0
-313 3 15 27 39 51 63 75 87 0
-314 5 17 29 41 53 65 77 89 0
-315 9 21 33 45 57 69 81 93 0
-316 4 16 28 40 52 64 76 88 0
-317 1 13 25 37 49 61 73 85 0
-318 4 16 28 40 52 64 76 88 0
-319 2 14 26 38 50 62 74 86 0
-320 3 15 27 39 51 63 75 87 0
-321 10 22 34 46 58 70 82 94 0
-322 1 13 25 37 49 61 73 85 0
-323 6 18 30 42 54 66 78 90 0
-324 5 17 29 41 53 65 77 89 0
-325 7 19 31 43 55 67 79 91 0
-326 6 18 30 42 54 66 78 90 0
-327 8 20 32 44 56 68 80 92 0
-328 7 19 31 43 55 67 79 91 0
-329 1 13 25 37 49 61 73 85 0
-330 12 24 36 48 60 72 84 96 0
-331 4 16 28 40 52 64 76 88 0
-332 9 21 33 45 57 69 81 93 0
-334 3 15 27 39 51 63 75 87 99 0
-335 5 17 29 41 53 65 77 89 101 0
-336 9 21 33 45 57 69 81 93 105 0
-337 4 16 28 40 52 64 76 88 100 0
-338 1 13 25 37 49 61 73 85 97 0
-339 4 16 28 40 52 64 76 88 100 0
-340 2 14 26 38 50 62 74 86 98 0
-341 3 15 27 39 51 63 75 87 99 0
-342 10 22 34 46 58 70 82 94 106 0
-343 1 13 25 37 49 61 73 85 97 0
-344 6 18 30 42 54 66 78 90 102 0
-345 5 17 29 41 53 65 77 89 101 0
-346 7 19 31 43 55 67 79 91 103 0
-347 6 18 30 42 54 66 78 90 102 0
-348 8 20 32 44 56 68 80 92 104 0
-349 7 19 31 43 55 67 79 91 103 0
-350 1 13 25 37 49 61 73 85 97 0
-351 12 24 36 48 60 72 84 96 108 0
-352 4 16 28 40 52 64 76 88 100 0
-353 9 21 33 45 57 69 81 93 105 0
-355 3 15 27 39 51 63 75 87 99 111 0
-356 5 17 29 41 53 65 77 89 101 113 0
-357 9 21 33 45 57 69 81 93 105 117 0
-358 4 16 28 40 52 64 76 88 100 112 0
-359 1 13 25 37 49 61 73 85 97 109 0
-360 4 16 28 40 52 64 76 88 100 112 0
-361 2 14 26 38 50 62 74 86 98 110 0
-362 3 15 27 39 51 63 75 87 99 111 0
-363 10 22 34 46 58 70 82 94 106 118 0
-364 1 13 25 37 49 61 73 85 97 109 0
-365 6 18 30 42 54 66 78 90 102 114 0
-366 5 17 29 41 53 65 77 89 101 113 0
-367 7 19 31 43 55 67 79 91 103 115 0
-368 6 18 30 42 54 66 78 90 102 114 0
-369 8 20 32 44 56 68 80 92 104 116 0
-370 7 19 31 43 55 67 79 91 103 115 0
-371 1 13 25 37 49 61 73 85 97 109 0
-372 12 24 36 48 60 72 84 96 108 120 0
-373 4 16 28 40 52 64 76 88 100 112 0
-374 9 21 33 45 57 69 81 93 105 117 0
-376 3 15 27 39 51 63 75 87 99 111 123 0
-377 5 17 29 41 53 65 77 89 101 113 125 0
-378 9 21 33 45 57 69 81 93 105 117 129 0
-379 4 16 28 40 52 64 76 88 100 112 124 0
-380 1 13 25 37 49 61 73 85 97 109 121 0
-381 4 16 28 40 52 64 76 88 100 112 124 0
-382 2 14 26 38 50 62 74 86 98 110 122 0
-383 3 15 27 39 51 63 75 87 99 111 123 0
-384 10 22 34 46 58 70 82 94 106 118 130 0
-385 1 13 25 37 49 61 73 85 97 109 121 0
-386 6 18 30 42 54 66 78 90 102 114 126 0
-387 5 17 29 41 53 65 77 89 101 113 125 0
-388 7 19 31 43 55 67 79 91 103 115 127 0
-389 6 18 30 42 54 66 78 90 102 114 126 0
-390 8 20 32 44 56 68 80 92 104 116 128 0
-391 7 19 31 43 55 67 79 91 103 115 127 0
-392 1 13 25 37 49 61 73 85 97 109 121 0
-393 12 24 36 48 60 72 84 96 108 120 132 0
-394 4 16 28 40 52 64 76 88 100 112 124 0
-395 9 21 33 45 57 69 81 93 105 117 129 0
