p cnf 1241 3229
-1 -2 0
-1 -3 0
-1 -4 0
-1 -5 0
-1 -6 0
-1 -7 0
-1 -8 0
-1 -9 0
-1 -10 0
-1 -11 0
-1 -12 0
-1 -13 0
-1 -14 0
-2 -3 0
-2 -4 0
-2 -5 0
-2 -6 0
-2 -7 0
-2 -8 0
-2 -9 0
-2 -10 0
-2 -11 0
-2 -12 0
-2 -13 0
-2 -14 0
-3 -4 0
-3 -5 0
-3 -6 0
-3 -7 0
-3 -8 0
-3 -9 0
-3 -10 0
-3 -11 0
-3 -12 0
-3 -13 0
-3 -14 0
-4 -5 0
-4 -6 0
-4 -7 0
-4 -8 0
-4 -9 0
-4 -10 0
-4 -11 0
-4 -12 0
-4 -13 0
-4 -14 0
-5 -6 0
-5 -7 0
-5 -8 0
-5 -9 0
-5 -10 0
-5 -11 0
-5 -12 0
-5 -13 0
-5 -14 0
-6 -7 0
-6 -8 0
-6 -9 0
-6 -10 0
-6 -11 0
-6 -12 0
-6 -13 0
-6 -14 0
-7 -8 0
-7 -9 0
-7 -10 0
-7 -11 0
-7 -12 0
-7 -13 0
-7 -14 0
-8 -9 0
-8 -10 0
-8 -11 0
-8 -12 0
-8 -13 0
-8 -14 0
-9 -10 0
-9 -11 0
-9 -12 0
-9 -13 0
-9 -14 0
-10 -11 0
-10 -12 0
-10 -13 0
-10 -14 0
-11 -12 0
-11 -13 0
-11 -14 0
-12 -13 0
-12 -14 0
-13 -14 0
-220 197 1 0
-221 198 0
-222 199 2 0
-223 200 3 0
-224 201 4 0
-225 202 5 0
-226 203 6 0
-227 204 7 0
-228 205 0
-229 206 8 0
-230 207 9 0
-231 208 0
-232 209 0
-233 210 10 0
-234 211 11 0
-235 212 12 0
-236 213 13 0
-237 214 0
-238 215 0
-239 216 14 0
-240 217 0
-241 218 0
-242 219 0
-15 -16 0
-15 -17 0
-15 -18 0
-15 -19 0
-15 -20 0
-15 -21 0
-15 -22 0
-15 -23 0
-15 -24 0
-15 -25 0
-15 -26 0
-15 -27 0
-15 -28 0
-16 -17 0
-16 -18 0
-16 -19 0
-16 -20 0
-16 -21 0
-16 -22 0
-16 -23 0
-16 -24 0
-16 -25 0
-16 -26 0
-16 -27 0
-16 -28 0
-17 -18 0
-17 -19 0
-17 -20 0
-17 -21 0
-17 -22 0
-17 -23 0
-17 -24 0
-17 -25 0
-17 -26 0
-17 -27 0
-17 -28 0
-18 -19 0
-18 -20 0
-18 -21 0
-18 -22 0
-18 -23 0
-18 -24 0
-18 -25 0
-18 -26 0
-18 -27 0
-18 -28 0
-19 -20 0
-19 -21 0
-19 -22 0
-19 -23 0
-19 -24 0
-19 -25 0
-19 -26 0
-19 -27 0
-19 -28 0
-20 -21 0
-20 -22 0
-20 -23 0
-20 -24 0
-20 -25 0
-20 -26 0
-20 -27 0
-20 -28 0
-21 -22 0
-21 -23 0
-21 -24 0
-21 -25 0
-21 -26 0
-21 -27 0
-21 -28 0
-22 -23 0
-22 -24 0
-22 -25 0
-22 -26 0
-22 -27 0
-22 -28 0
-23 -24 0
-23 -25 0
-23 -26 0
-23 -27 0
-23 -28 0
-24 -25 0
-24 -26 0
-24 -27 0
-24 -28 0
-25 -26 0
-25 -27 0
-25 -28 0
-26 -27 0
-26 -28 0
-27 -28 0
-243 220 15 0
-244 221 0
-245 222 16 0
-246 223 17 0
-247 224 18 0
-248 225 19 0
-249 226 20 0
-250 227 21 0
-251 228 0
-252 229 22 0
-253 230 23 0
-254 231 0
-255 232 0
-256 233 24 0
-257 234 25 0
-258 235 26 0
-259 236 27 0
-260 237 0
-261 238 0
-262 239 28 0
-263 240 0
-264 241 0
-265 242 0
-29 -30 0
-29 -31 0
-29 -32 0
-29 -33 0
-29 -34 0
-29 -35 0
-29 -36 0
-29 -37 0
-29 -38 0
-29 -39 0
-29 -40 0
-29 -41 0
-29 -42 0
-30 -31 0
-30 -32 0
-30 -33 0
-30 -34 0
-30 -35 0
-30 -36 0
-30 -37 0
-30 -38 0
-30 -39 0
-30 -40 0
-30 -41 0
-30 -42 0
-31 -32 0
-31 -33 0
-31 -34 0
-31 -35 0
-31 -36 0
-31 -37 0
-31 -38 0
-31 -39 0
-31 -40 0
-31 -41 0
-31 -42 0
-32 -33 0
-32 -34 0
-32 -35 0
-32 -36 0
-32 -37 0
-32 -38 0
-32 -39 0
-32 -40 0
-32 -41 0
-32 -42 0
-33 -34 0
-33 -35 0
-33 -36 0
-33 -37 0
-33 -38 0
-33 -39 0
-33 -40 0
-33 -41 0
-33 -42 0
-34 -35 0
-34 -36 0
-34 -37 0
-34 -38 0
-34 -39 0
-34 -40 0
-34 -41 0
-34 -42 0
-35 -36 0
-35 -37 0
-35 -38 0
-35 -39 0
-35 -40 0
-35 -41 0
-35 -42 0
-36 -37 0
-36 -38 0
-36 -39 0
-36 -40 0
-36 -41 0
-36 -42 0
-37 -38 0
-37 -39 0
-37 -40 0
-37 -41 0
-37 -42 0
-38 -39 0
-38 -40 0
-38 -41 0
-38 -42 0
-39 -40 0
-39 -41 0
-39 -42 0
-40 -41 0
-40 -42 0
-41 -42 0
-266 243 29 0
-267 244 0
-268 245 30 0
-269 246 31 0
-270 247 32 0
-271 248 33 0
-272 249 34 0
-273 250 35 0
-274 251 0
-275 252 36 0
-276 253 37 0
-277 254 0
-278 255 0
-279 256 38 0
-280 257 39 0
-281 258 40 0
-282 259 41 0
-283 260 0
-284 261 0
-285 262 42 0
-286 263 0
-287 264 0
-288 265 0
-43 -44 0
-43 -45 0
-43 -46 0
-43 -47 0
-43 -48 0
-43 -49 0
-43 -50 0
-43 -51 0
-43 -52 0
-43 -53 0
-43 -54 0
-43 -55 0
-43 -56 0
-44 -45 0
-44 -46 0
-44 -47 0
-44 -48 0
-44 -49 0
-44 -50 0
-44 -51 0
-44 -52 0
-44 -53 0
-44 -54 0
-44 -55 0
-44 -56 0
-45 -46 0
-45 -47 0
-45 -48 0
-45 -49 0
-45 -50 0
-45 -51 0
-45 -52 0
-45 -53 0
-45 -54 0
-45 -55 0
-45 -56 0
-46 -47 0
-46 -48 0
-46 -49 0
-46 -50 0
-46 -51 0
-46 -52 0
-46 -53 0
-46 -54 0
-46 -55 0
-46 -56 0
-47 -48 0
-47 -49 0
-47 -50 0
-47 -51 0
-47 -52 0
-47 -53 0
-47 -54 0
-47 -55 0
-47 -56 0
-48 -49 0
-48 -50 0
-48 -51 0
-48 -52 0
-48 -53 0
-48 -54 0
-48 -55 0
-48 -56 0
-49 -50 0
-49 -51 0
-49 -52 0
-49 -53 0
-49 -54 0
-49 -55 0
-49 -56 0
-50 -51 0
-50 -52 0
-50 -53 0
-50 -54 0
-50 -55 0
-50 -56 0
-51 -52 0
-51 -53 0
-51 -54 0
-51 -55 0
-51 -56 0
-52 -53 0
-52 -54 0
-52 -55 0
-52 -56 0
-53 -54 0
-53 -55 0
-53 -56 0
-54 -55 0
-54 -56 0
-55 -56 0
-289 266 43 0
-290 267 0
-291 268 44 0
-292 269 45 0
-293 270 46 0
-294 271 47 0
-295 272 48 0
-296 273 49 0
-297 274 0
-298 275 50 0
-299 276 51 0
-300 277 0
-301 278 0
-302 279 52 0
-303 280 53 0
-304 281 54 0
-305 282 55 0
-306 283 0
-307 284 0
-308 285 56 0
-309 286 0
-310 287 0
-311 288 0
-57 -58 0
-57 -59 0
-57 -60 0
-57 -61 0
-57 -62 0
-57 -63 0
-57 -64 0
-57 -65 0
-57 -66 0
-57 -67 0
-57 -68 0
-57 -69 0
-57 -70 0
-58 -59 0
-58 -60 0
-58 -61 0
-58 -62 0
-58 -63 0
-58 -64 0
-58 -65 0
-58 -66 0
-58 -67 0
-58 -68 0
-58 -69 0
-58 -70 0
-59 -60 0
-59 -61 0
-59 -62 0
-59 -63 0
-59 -64 0
-59 -65 0
-59 -66 0
-59 -67 0
-59 -68 0
-59 -69 0
-59 -70 0
-60 -61 0
-60 -62 0
-60 -63 0
-60 -64 0
-60 -65 0
-60 -66 0
-60 -67 0
-60 -68 0
-60 -69 0
-60 -70 0
-61 -62 0
-61 -63 0
-61 -64 0
-61 -65 0
-61 -66 0
-61 -67 0
-61 -68 0
-61 -69 0
-61 -70 0
-62 -63 0
-62 -64 0
-62 -65 0
-62 -66 0
-62 -67 0
-62 -68 0
-62 -69 0
-62 -70 0
-63 -64 0
-63 -65 0
-63 -66 0
-63 -67 0
-63 -68 0
-63 -69 0
-63 -70 0
-64 -65 0
-64 -66 0
-64 -67 0
-64 -68 0
-64 -69 0
-64 -70 0
-65 -66 0
-65 -67 0
-65 -68 0
-65 -69 0
-65 -70 0
-66 -67 0
-66 -68 0
-66 -69 0
-66 -70 0
-67 -68 0
-67 -69 0
-67 -70 0
-68 -69 0
-68 -70 0
-69 -70 0
-312 289 57 0
-313 290 0
-314 291 58 0
-315 292 59 0
-316 293 60 0
-317 294 61 0
-318 295 62 0
-319 296 63 0
-320 297 0
-321 298 64 0
-322 299 65 0
-323 300 0
-324 301 0
-325 302 66 0
-326 303 67 0
-327 304 68 0
-328 305 69 0
-329 306 0
-330 307 0
-331 308 70 0
-332 309 0
-333 310 0
-334 311 0
-71 -72 0
-71 -73 0
-71 -74 0
-71 -75 0
-71 -76 0
-71 -77 0
-71 -78 0
-71 -79 0
-71 -80 0
-71 -81 0
-71 -82 0
-71 -83 0
-71 -84 0
-72 -73 0
-72 -74 0
-72 -75 0
-72 -76 0
-72 -77 0
-72 -78 0
-72 -79 0
-72 -80 0
-72 -81 0
-72 -82 0
-72 -83 0
-72 -84 0
-73 -74 0
-73 -75 0
-73 -76 0
-73 -77 0
-73 -78 0
-73 -79 0
-73 -80 0
-73 -81 0
-73 -82 0
-73 -83 0
-73 -84 0
-74 -75 0
-74 -76 0
-74 -77 0
-74 -78 0
-74 -79 0
-74 -80 0
-74 -81 0
-74 -82 0
-74 -83 0
-74 -84 0
-75 -76 0
-75 -77 0
-75 -78 0
-75 -79 0
-75 -80 0
-75 -81 0
-75 -82 0
-75 -83 0
-75 -84 0
-76 -77 0
-76 -78 0
-76 -79 0
-76 -80 0
-76 -81 0
-76 -82 0
-76 -83 0
-76 -84 0
-77 -78 0
-77 -79 0
-77 -80 0
-77 -81 0
-77 -82 0
-77 -83 0
-77 -84 0
-78 -79 0
-78 -80 0
-78 -81 0
-78 -82 0
-78 -83 0
-78 -84 0
-79 -80 0
-79 -81 0
-79 -82 0
-79 -83 0
-79 -84 0
-80 -81 0
-80 -82 0
-80 -83 0
-80 -84 0
-81 -82 0
-81 -83 0
-81 -84 0
-82 -83 0
-82 -84 0
-83 -84 0
-335 312 71 0
-336 313 0
-337 314 72 0
-338 315 73 0
-339 316 74 0
-340 317 75 0
-341 318 76 0
-342 319 77 0
-343 320 0
-344 321 78 0
-345 322 79 0
-346 323 0
-347 324 0
-348 325 80 0
-349 326 81 0
-350 327 82 0
-351 328 83 0
-352 329 0
-353 330 0
-354 331 84 0
-355 332 0
-356 333 0
-357 334 0
-85 -86 0
-85 -87 0
-85 -88 0
-85 -89 0
-85 -90 0
-85 -91 0
-85 -92 0
-85 -93 0
-85 -94 0
-85 -95 0
-85 -96 0
-85 -97 0
-85 -98 0
-86 -87 0
-86 -88 0
-86 -89 0
-86 -90 0
-86 -91 0
-86 -92 0
-86 -93 0
-86 -94 0
-86 -95 0
-86 -96 0
-86 -97 0
-86 -98 0
-87 -88 0
-87 -89 0
-87 -90 0
-87 -91 0
-87 -92 0
-87 -93 0
-87 -94 0
-87 -95 0
-87 -96 0
-87 -97 0
-87 -98 0
-88 -89 0
-88 -90 0
-88 -91 0
-88 -92 0
-88 -93 0
-88 -94 0
-88 -95 0
-88 -96 0
-88 -97 0
-88 -98 0
-89 -90 0
-89 -91 0
-89 -92 0
-89 -93 0
-89 -94 0
-89 -95 0
-89 -96 0
-89 -97 0
-89 -98 0
-90 -91 0
-90 -92 0
-90 -93 0
-90 -94 0
-90 -95 0
-90 -96 0
-90 -97 0
-90 -98 0
-91 -92 0
-91 -93 0
-91 -94 0
-91 -95 0
-91 -96 0
-91 -97 0
-91 -98 0
-92 -93 0
-92 -94 0
-92 -95 0
-92 -96 0
-92 -97 0
-92 -98 0
-93 -94 0
-93 -95 0
-93 -96 0
-93 -97 0
-93 -98 0
-94 -95 0
-94 -96 0
-94 -97 0
-94 -98 0
-95 -96 0
-95 -97 0
-95 -98 0
-96 -97 0
-96 -98 0
-97 -98 0
-358 335 85 0
-359 336 0
-360 337 86 0
-361 338 87 0
-362 339 88 0
-363 340 89 0
-364 341 90 0
-365 342 91 0
-366 343 0
-367 344 92 0
-368 345 93 0
-369 346 0
-370 347 0
-371 348 94 0
-372 349 95 0
-373 350 96 0
-374 351 97 0
-375 352 0
-376 353 0
-377 354 98 0
-378 355 0
-379 356 0
-380 357 0
-99 -100 0
-99 -101 0
-99 -102 0
-99 -103 0
-99 -104 0
-99 -105 0
-99 -106 0
-99 -107 0
-99 -108 0
-99 -109 0
-99 -110 0
-99 -111 0
-99 -112 0
-100 -101 0
-100 -102 0
-100 -103 0
-100 -104 0
-100 -105 0
-100 -106 0
-100 -107 0
-100 -108 0
-100 -109 0
-100 -110 0
-100 -111 0
-100 -112 0
-101 -102 0
-101 -103 0
-101 -104 0
-101 -105 0
-101 -106 0
-101 -107 0
-101 -108 0
-101 -109 0
-101 -110 0
-101 -111 0
-101 -112 0
-102 -103 0
-102 -104 0
-102 -105 0
-102 -106 0
-102 -107 0
-102 -108 0
-102 -109 0
-102 -110 0
-102 -111 0
-102 -112 0
-103 -104 0
-103 -105 0
-103 -106 0
-103 -107 0
-103 -108 0
-103 -109 0
-103 -110 0
-103 -111 0
-103 -112 0
-104 -105 0
-104 -106 0
-104 -107 0
-104 -108 0
-104 -109 0
-104 -110 0
-104 -111 0
-104 -112 0
-105 -106 0
-105 -107 0
-105 -108 0
-105 -109 0
-105 -110 0
-105 -111 0
-105 -112 0
-106 -107 0
-106 -108 0
-106 -109 0
-106 -110 0
-106 -111 0
-106 -112 0
-107 -108 0
-107 -109 0
-107 -110 0
-107 -111 0
-107 -112 0
-108 -109 0
-108 -110 0
-108 -111 0
-108 -112 0
-109 -110 0
-109 -111 0
-109 -112 0
-110 -111 0
-110 -112 0
-111 -112 0
-381 358 99 0
-382 359 0
-383 360 100 0
-384 361 101 0
-385 362 102 0
-386 363 103 0
-387 364 104 0
-388 365 105 0
-389 366 0
-390 367 106 0
-391 368 107 0
-392 369 0
-393 370 0
-394 371 108 0
-395 372 109 0
-396 373 110 0
-397 374 111 0
-398 375 0
-399 376 0
-400 377 112 0
-401 378 0
-402 379 0
-403 380 0
-113 -114 0
-113 -115 0
-113 -116 0
-113 -117 0
-113 -118 0
-113 -119 0
-113 -120 0
-113 -121 0
-113 -122 0
-113 -123 0
-113 -124 0
-113 -125 0
-113 -126 0
-114 -115 0
-114 -116 0
-114 -117 0
-114 -118 0
-114 -119 0
-114 -120 0
-114 -121 0
-114 -122 0
-114 -123 0
-114 -124 0
-114 -125 0
-114 -126 0
-115 -116 0
-115 -117 0
-115 -118 0
-115 -119 0
-115 -120 0
-115 -121 0
-115 -122 0
-115 -123 0
-115 -124 0
-115 -125 0
-115 -126 0
-116 -117 0
-116 -118 0
-116 -119 0
-116 -120 0
-116 -121 0
-116 -122 0
-116 -123 0
-116 -124 0
-116 -125 0
-116 -126 0
-117 -118 0
-117 -119 0
-117 -120 0
-117 -121 0
-117 -122 0
-117 -123 0
-117 -124 0
-117 -125 0
-117 -126 0
-118 -119 0
-118 -120 0
-118 -121 0
-118 -122 0
-118 -123 0
-118 -124 0
-118 -125 0
-118 -126 0
-119 -120 0
-119 -121 0
-119 -122 0
-119 -123 0
-119 -124 0
-119 -125 0
-119 -126 0
-120 -121 0
-120 -122 0
-120 -123 0
-120 -124 0
-120 -125 0
-120 -126 0
-121 -122 0
-121 -123 0
-121 -124 0
-121 -125 0
-121 -126 0
-122 -123 0
-122 -124 0
-122 -125 0
-122 -126 0
-123 -124 0
-123 -125 0
-123 -126 0
-124 -125 0
-124 -126 0
-125 -126 0
-404 381 113 0
-405 382 0
-406 383 114 0
-407 384 115 0
-408 385 116 0
-409 386 117 0
-410 387 118 0
-411 388 119 0
-412 389 0
-413 390 120 0
-414 391 121 0
-415 392 0
-416 393 0
-417 394 122 0
-418 395 123 0
-419 396 124 0
-420 397 125 0
-421 398 0
-422 399 0
-423 400 126 0
-424 401 0
-425 402 0
-426 403 0
-127 -128 0
-127 -129 0
-127 -130 0
-127 -131 0
-127 -132 0
-127 -133 0
-127 -134 0
-127 -135 0
-127 -136 0
-127 -137 0
-127 -138 0
-127 -139 0
-127 -140 0
-128 -129 0
-128 -130 0
-128 -131 0
-128 -132 0
-128 -133 0
-128 -134 0
-128 -135 0
-128 -136 0
-128 -137 0
-128 -138 0
-128 -139 0
-128 -140 0
-129 -130 0
-129 -131 0
-129 -132 0
-129 -133 0
-129 -134 0
-129 -135 0
-129 -136 0
-129 -137 0
-129 -138 0
-129 -139 0
-129 -140 0
-130 -131 0
-130 -132 0
-130 -133 0
-130 -134 0
-130 -135 0
-130 -136 0
-130 -137 0
-130 -138 0
-130 -139 0
-130 -140 0
-131 -132 0
-131 -133 0
-131 -134 0
-131 -135 0
-131 -136 0
-131 -137 0
-131 -138 0
-131 -139 0
-131 -140 0
-132 -133 0
-132 -134 0
-132 -135 0
-132 -136 0
-132 -137 0
-132 -138 0
-132 -139 0
-132 -140 0
-133 -134 0
-133 -135 0
-133 -136 0
-133 -137 0
-133 -138 0
-133 -139 0
-133 -140 0
-134 -135 0
-134 -136 0
-134 -137 0
-134 -138 0
-134 -139 0
-134 -140 0
-135 -136 0
-135 -137 0
-135 -138 0
-135 -139 0
-135 -140 0
-136 -137 0
-136 -138 0
-136 -139 0
-136 -140 0
-137 -138 0
-137 -139 0
-137 -140 0
-138 -139 0
-138 -140 0
-139 -140 0
-427 404 127 0
-428 405 0
-429 406 128 0
-430 407 129 0
-431 408 130 0
-432 409 131 0
-433 410 132 0
-434 411 133 0
-435 412 0
-436 413 134 0
-437 414 135 0
-438 415 0
-439 416 0
-440 417 136 0
-441 418 137 0
-442 419 138 0
-443 420 139 0
-444 421 0
-445 422 0
-446 423 140 0
-447 424 0
-448 425 0
-449 426 0
-141 -142 0
-141 -143 0
-141 -144 0
-141 -145 0
-141 -146 0
-141 -147 0
-141 -148 0
-141 -149 0
-141 -150 0
-141 -151 0
-141 -152 0
-141 -153 0
-141 -154 0
-142 -143 0
-142 -144 0
-142 -145 0
-142 -146 0
-142 -147 0
-142 -148 0
-142 -149 0
-142 -150 0
-142 -151 0
-142 -152 0
-142 -153 0
-142 -154 0
-143 -144 0
-143 -145 0
-143 -146 0
-143 -147 0
-143 -148 0
-143 -149 0
-143 -150 0
-143 -151 0
-143 -152 0
-143 -153 0
-143 -154 0
-144 -145 0
-144 -146 0
-144 -147 0
-144 -148 0
-144 -149 0
-144 -150 0
-144 -151 0
-144 -152 0
-144 -153 0
-144 -154 0
-145 -146 0
-145 -147 0
-145 -148 0
-145 -149 0
-145 -150 0
-145 -151 0
-145 -152 0
-145 -153 0
-145 -154 0
-146 -147 0
-146 -148 0
-146 -149 0
-146 -150 0
-146 -151 0
-146 -152 0
-146 -153 0
-146 -154 0
-147 -148 0
-147 -149 0
-147 -150 0
-147 -151 0
-147 -152 0
-147 -153 0
-147 -154 0
-148 -149 0
-148 -150 0
-148 -151 0
-148 -152 0
-148 -153 0
-148 -154 0
-149 -150 0
-149 -151 0
-149 -152 0
-149 -153 0
-149 -154 0
-150 -151 0
-150 -152 0
-150 -153 0
-150 -154 0
-151 -152 0
-151 -153 0
-151 -154 0
-152 -153 0
-152 -154 0
-153 -154 0
-450 427 141 0
-451 428 0
-452 429 142 0
-453 430 143 0
-454 431 144 0
-455 432 145 0
-456 433 146 0
-457 434 147 0
-458 435 0
-459 436 148 0
-460 437 149 0
-461 438 0
-462 439 0
-463 440 150 0
-464 441 151 0
-465 442 152 0
-466 443 153 0
-467 444 0
-468 445 0
-469 446 154 0
-470 447 0
-471 448 0
-472 449 0
-155 -156 0
-155 -157 0
-155 -158 0
-155 -159 0
-155 -160 0
-155 -161 0
-155 -162 0
-155 -163 0
-155 -164 0
-155 -165 0
-155 -166 0
-155 -167 0
-155 -168 0
-156 -157 0
-156 -158 0
-156 -159 0
-156 -160 0
-156 -161 0
-156 -162 0
-156 -163 0
-156 -164 0
-156 -165 0
-156 -166 0
-156 -167 0
-156 -168 0
-157 -158 0
-157 -159 0
-157 -160 0
-157 -161 0
-157 -162 0
-157 -163 0
-157 -164 0
-157 -165 0
-157 -166 0
-157 -167 0
-157 -168 0
-158 -159 0
-158 -160 0
-158 -161 0
-158 -162 0
-158 -163 0
-158 -164 0
-158 -165 0
-158 -166 0
-158 -167 0
-158 -168 0
-159 -160 0
-159 -161 0
-159 -162 0
-159 -163 0
-159 -164 0
-159 -165 0
-159 -166 0
-159 -167 0
-159 -168 0
-160 -161 0
-160 -162 0
-160 -163 0
-160 -164 0
-160 -165 0
-160 -166 0
-160 -167 0
-160 -168 0
-161 -162 0
-161 -163 0
-161 -164 0
-161 -165 0
-161 -166 0
-161 -167 0
-161 -168 0
-162 -163 0
-162 -164 0
-162 -165 0
-162 -166 0
-162 -167 0
-162 -168 0
-163 -164 0
-163 -165 0
-163 -166 0
-163 -167 0
-163 -168 0
-164 -165 0
-164 -166 0
-164 -167 0
-164 -168 0
-165 -166 0
-165 -167 0
-165 -168 0
-166 -167 0
-166 -168 0
-167 -168 0
-473 450 155 0
-474 451 0
-475 452 156 0
-476 453 157 0
-477 454 158 0
-478 455 159 0
-479 456 160 0
-480 457 161 0
-481 458 0
-482 459 162 0
-483 460 163 0
-484 461 0
-485 462 0
-486 463 164 0
-487 464 165 0
-488 465 166 0
-489 466 167 0
-490 467 0
-491 468 0
-492 469 168 0
-493 470 0
-494 471 0
-495 472 0
-169 -170 0
-169 -171 0
-169 -172 0
-169 -173 0
-169 -174 0
-169 -175 0
-169 -176 0
-169 -177 0
-169 -178 0
-169 -179 0
-169 -180 0
-169 -181 0
-169 -182 0
-170 -171 0
-170 -172 0
-170 -173 0
-170 -174 0
-170 -175 0
-170 -176 0
-170 -177 0
-170 -178 0
-170 -179 0
-170 -180 0
-170 -181 0
-170 -182 0
-171 -172 0
-171 -173 0
-171 -174 0
-171 -175 0
-171 -176 0
-171 -177 0
-171 -178 0
-171 -179 0
-171 -180 0
-171 -181 0
-171 -182 0
-172 -173 0
-172 -174 0
-172 -175 0
-172 -176 0
-172 -177 0
-172 -178 0
-172 -179 0
-172 -180 0
-172 -181 0
-172 -182 0
-173 -174 0
-173 -175 0
-173 -176 0
-173 -177 0
-173 -178 0
-173 -179 0
-173 -180 0
-173 -181 0
-173 -182 0
-174 -175 0
-174 -176 0
-174 -177 0
-174 -178 0
-174 -179 0
-174 -180 0
-174 -181 0
-174 -182 0
-175 -176 0
-175 -177 0
-175 -178 0
-175 -179 0
-175 -180 0
-175 -181 0
-175 -182 0
-176 -177 0
-176 -178 0
-176 -179 0
-176 -180 0
-176 -181 0
-176 -182 0
-177 -178 0
-177 -179 0
-177 -180 0
-177 -181 0
-177 -182 0
-178 -179 0
-178 -180 0
-178 -181 0
-178 -182 0
-179 -180 0
-179 -181 0
-179 -182 0
-180 -181 0
-180 -182 0
-181 -182 0
-496 473 169 0
-497 474 0
-498 475 170 0
-499 476 171 0
-500 477 172 0
-501 478 173 0
-502 479 174 0
-503 480 175 0
-504 481 0
-505 482 176 0
-506 483 177 0
-507 484 0
-508 485 0
-509 486 178 0
-510 487 179 0
-511 488 180 0
-512 489 181 0
-513 490 0
-514 491 0
-515 492 182 0
-516 493 0
-517 494 0
-518 495 0
-183 -184 0
-183 -185 0
-183 -186 0
-183 -187 0
-183 -188 0
-183 -189 0
-183 -190 0
-183 -191 0
-183 -192 0
-183 -193 0
-183 -194 0
-183 -195 0
-183 -196 0
-184 -185 0
-184 -186 0
-184 -187 0
-184 -188 0
-184 -189 0
-184 -190 0
-184 -191 0
-184 -192 0
-184 -193 0
-184 -194 0
-184 -195 0
-184 -196 0
-185 -186 0
-185 -187 0
-185 -188 0
-185 -189 0
-185 -190 0
-185 -191 0
-185 -192 0
-185 -193 0
-185 -194 0
-185 -195 0
-185 -196 0
-186 -187 0
-186 -188 0
-186 -189 0
-186 -190 0
-186 -191 0
-186 -192 0
-186 -193 0
-186 -194 0
-186 -195 0
-186 -196 0
-187 -188 0
-187 -189 0
-187 -190 0
-187 -191 0
-187 -192 0
-187 -193 0
-187 -194 0
-187 -195 0
-187 -196 0
-188 -189 0
-188 -190 0
-188 -191 0
-188 -192 0
-188 -193 0
-188 -194 0
-188 -195 0
-188 -196 0
-189 -190 0
-189 -191 0
-189 -192 0
-189 -193 0
-189 -194 0
-189 -195 0
-189 -196 0
-190 -191 0
-190 -192 0
-190 -193 0
-190 -194 0
-190 -195 0
-190 -196 0
-191 -192 0
-191 -193 0
-191 -194 0
-191 -195 0
-191 -196 0
-192 -193 0
-192 -194 0
-192 -195 0
-192 -196 0
-193 -194 0
-193 -195 0
-193 -196 0
-194 -195 0
-194 -196 0
-195 -196 0
-519 496 183 0
-520 497 0
-521 498 184 0
-522 499 185 0
-523 500 186 0
-524 501 187 0
-525 502 188 0
-526 503 189 0
-527 504 0
-528 505 190 0
-529 506 191 0
-530 507 0
-531 508 0
-532 509 192 0
-533 510 193 0
-534 511 194 0
-535 512 195 0
-536 513 0
-537 514 0
-538 515 196 0
-539 516 0
-540 517 0
-541 518 0
-197 0
198 0
-199 0
-200 0
-201 0
-202 0
-203 0
-204 0
205 0
-206 0
-207 0
208 0
209 0
-210 0
-211 0
-212 0
-213 0
214 0
215 0
-216 0
217 0
218 0
219 0
1 15 29 43 57 71 85 99 113 127 141 155 169 183 0
2 16 30 44 58 72 86 100 114 128 142 156 170 184 0
3 17 31 45 59 73 87 101 115 129 143 157 171 185 0
4 18 32 46 60 74 88 102 116 130 144 158 172 186 0
5 19 33 47 61 75 89 103 117 131 145 159 173 187 0
6 20 34 48 62 76 90 104 118 132 146 160 174 188 0
7 21 35 49 63 77 91 105 119 133 147 161 175 189 0
8 22 36 50 64 78 92 106 120 134 148 162 176 190 0
9 23 37 51 65 79 93 107 121 135 149 163 177 191 0
10 24 38 52 66 80 94 108 122 136 150 164 178 192 0
11 25 39 53 67 81 95 109 123 137 151 165 179 193 0
12 26 40 54 68 82 96 110 124 138 152 166 180 194 0
13 27 41 55 69 83 97 111 125 139 153 167 181 195 0
14 28 42 56 70 84 98 112 126 140 154 168 182 196 0
-1 0
-542 200 0
-542 219 0
-543 200 0
-543 219 0
-544 201 0
-544 216 0
-545 201 0
-545 216 0
-2 542 543 544 545 0
-546 199 0
-546 219 0
-547 199 0
-547 219 0
-548 201 0
-548 217 0
-549 201 0
-549 217 0
-3 546 547 548 549 0
-550 198 0
-550 209 0
-551 198 0
-551 209 0
-552 199 0
-552 216 0
-553 199 0
-553 216 0
-554 200 0
-554 217 0
-555 200 0
-555 217 0
-556 202 0
-556 207 0
-557 202 0
-557 207 0
-4 550 551 552 553 554 555 556 557 0
-558 198 0
-558 205 0
-559 198 0
-559 205 0
-560 201 0
-560 207 0
-561 201 0
-561 207 0
-5 558 559 560 561 0
-562 205 0
-562 208 0
-563 205 0
-563 208 0
-6 562 563 0
-564 205 0
-564 215 0
-565 205 0
-565 215 0
-566 206 0
-566 211 0
-567 206 0
-567 211 0
-7 564 565 566 567 0
-568 204 0
-568 211 0
-569 204 0
-569 211 0
-570 205 0
-570 214 0
-571 205 0
-571 214 0
-8 568 569 570 571 0
-572 201 0
-572 202 0
-573 201 0
-573 202 0
-574 205 0
-574 209 0
-575 205 0
-575 209 0
-9 572 573 574 575 0
-10 0
-576 204 0
-576 206 0
-577 204 0
-577 206 0
-578 212 0
-578 218 0
-579 212 0
-579 218 0
-580 214 0
-580 215 0
-581 214 0
-581 215 0
-11 576 577 578 579 580 581 0
-582 211 0
-582 218 0
-583 211 0
-583 218 0
-584 213 0
-584 219 0
-585 213 0
-585 219 0
-12 582 583 584 585 0
-586 212 0
-586 219 0
-587 212 0
-587 219 0
-13 586 587 0
-588 199 0
-588 201 0
-589 199 0
-589 201 0
-590 217 0
-590 219 0
-591 217 0
-591 219 0
-14 588 589 590 591 0
-15 0
-592 223 0
-592 242 0
-593 223 0
-593 242 0
-594 224 0
-594 239 0
-595 224 0
-595 239 0
-16 592 593 594 595 0
-596 222 0
-596 242 0
-597 222 0
-597 242 0
-598 224 0
-598 240 0
-599 224 0
-599 240 0
-17 596 597 598 599 0
-600 221 0
-600 232 0
-601 221 0
-601 232 0
-602 222 0
-602 239 0
-603 222 0
-603 239 0
-604 223 0
-604 240 0
-605 223 0
-605 240 0
-606 225 0
-606 230 0
-607 225 0
-607 230 0
-18 600 601 602 603 604 605 606 607 0
-608 221 0
-608 228 0
-609 221 0
-609 228 0
-610 224 0
-610 230 0
-611 224 0
-611 230 0
-19 608 609 610 611 0
-612 228 0
-612 231 0
-613 228 0
-613 231 0
-20 612 613 0
-614 228 0
-614 238 0
-615 228 0
-615 238 0
-616 229 0
-616 234 0
-617 229 0
-617 234 0
-21 614 615 616 617 0
-618 227 0
-618 234 0
-619 227 0
-619 234 0
-620 228 0
-620 237 0
-621 228 0
-621 237 0
-22 618 619 620 621 0
-622 224 0
-622 225 0
-623 224 0
-623 225 0
-624 228 0
-624 232 0
-625 228 0
-625 232 0
-23 622 623 624 625 0
-24 0
-626 227 0
-626 229 0
-627 227 0
-627 229 0
-628 235 0
-628 241 0
-629 235 0
-629 241 0
-630 237 0
-630 238 0
-631 237 0
-631 238 0
-25 626 627 628 629 630 631 0
-632 234 0
-632 241 0
-633 234 0
-633 241 0
-634 236 0
-634 242 0
-635 236 0
-635 242 0
-26 632 633 634 635 0
-636 235 0
-636 242 0
-637 235 0
-637 242 0
-27 636 637 0
-638 222 0
-638 224 0
-639 222 0
-639 224 0
-640 240 0
-640 242 0
-641 240 0
-641 242 0
-28 638 639 640 641 0
-29 0
-642 246 0
-642 265 0
-643 246 0
-643 265 0
-644 247 0
-644 262 0
-645 247 0
-645 262 0
-30 642 643 644 645 0
-646 245 0
-646 265 0
-647 245 0
-647 265 0
-648 247 0
-648 263 0
-649 247 0
-649 263 0
-31 646 647 648 649 0
-650 244 0
-650 255 0
-651 244 0
-651 255 0
-652 245 0
-652 262 0
-653 245 0
-653 262 0
-654 246 0
-654 263 0
-655 246 0
-655 263 0
-656 248 0
-656 253 0
-657 248 0
-657 253 0
-32 650 651 652 653 654 655 656 657 0
-658 244 0
-658 251 0
-659 244 0
-659 251 0
-660 247 0
-660 253 0
-661 247 0
-661 253 0
-33 658 659 660 661 0
-662 251 0
-662 254 0
-663 251 0
-663 254 0
-34 662 663 0
-664 251 0
-664 261 0
-665 251 0
-665 261 0
-666 252 0
-666 257 0
-667 252 0
-667 257 0
-35 664 665 666 667 0
-668 250 0
-668 257 0
-669 250 0
-669 257 0
-670 251 0
-670 260 0
-671 251 0
-671 260 0
-36 668 669 670 671 0
-672 247 0
-672 248 0
-673 247 0
-673 248 0
-674 251 0
-674 255 0
-675 251 0
-675 255 0
-37 672 673 674 675 0
-38 0
-676 250 0
-676 252 0
-677 250 0
-677 252 0
-678 258 0
-678 264 0
-679 258 0
-679 264 0
-680 260 0
-680 261 0
-681 260 0
-681 261 0
-39 676 677 678 679 680 681 0
-682 257 0
-682 264 0
-683 257 0
-683 264 0
-684 259 0
-684 265 0
-685 259 0
-685 265 0
-40 682 683 684 685 0
-686 258 0
-686 265 0
-687 258 0
-687 265 0
-41 686 687 0
-688 245 0
-688 247 0
-689 245 0
-689 247 0
-690 263 0
-690 265 0
-691 263 0
-691 265 0
-42 688 689 690 691 0
-43 0
-692 269 0
-692 288 0
-693 269 0
-693 288 0
-694 270 0
-694 285 0
-695 270 0
-695 285 0
-44 692 693 694 695 0
-696 268 0
-696 288 0
-697 268 0
-697 288 0
-698 270 0
-698 286 0
-699 270 0
-699 286 0
-45 696 697 698 699 0
-700 267 0
-700 278 0
-701 267 0
-701 278 0
-702 268 0
-702 285 0
-703 268 0
-703 285 0
-704 269 0
-704 286 0
-705 269 0
-705 286 0
-706 271 0
-706 276 0
-707 271 0
-707 276 0
-46 700 701 702 703 704 705 706 707 0
-708 267 0
-708 274 0
-709 267 0
-709 274 0
-710 270 0
-710 276 0
-711 270 0
-711 276 0
-47 708 709 710 711 0
-712 274 0
-712 277 0
-713 274 0
-713 277 0
-48 712 713 0
-714 274 0
-714 284 0
-715 274 0
-715 284 0
-716 275 0
-716 280 0
-717 275 0
-717 280 0
-49 714 715 716 717 0
-718 273 0
-718 280 0
-719 273 0
-719 280 0
-720 274 0
-720 283 0
-721 274 0
-721 283 0
-50 718 719 720 721 0
-722 270 0
-722 271 0
-723 270 0
-723 271 0
-724 274 0
-724 278 0
-725 274 0
-725 278 0
-51 722 723 724 725 0
-52 0
-726 273 0
-726 275 0
-727 273 0
-727 275 0
-728 281 0
-728 287 0
-729 281 0
-729 287 0
-730 283 0
-730 284 0
-731 283 0
-731 284 0
-53 726 727 728 729 730 731 0
-732 280 0
-732 287 0
-733 280 0
-733 287 0
-734 282 0
-734 288 0
-735 282 0
-735 288 0
-54 732 733 734 735 0
-736 281 0
-736 288 0
-737 281 0
-737 288 0
-55 736 737 0
-738 268 0
-738 270 0
-739 268 0
-739 270 0
-740 286 0
-740 288 0
-741 286 0
-741 288 0
-56 738 739 740 741 0
-57 0
-742 292 0
-742 311 0
-743 292 0
-743 311 0
-744 293 0
-744 308 0
-745 293 0
-745 308 0
-58 742 743 744 745 0
-746 291 0
-746 311 0
-747 291 0
-747 311 0
-748 293 0
-748 309 0
-749 293 0
-749 309 0
-59 746 747 748 749 0
-750 290 0
-750 301 0
-751 290 0
-751 301 0
-752 291 0
-752 308 0
-753 291 0
-753 308 0
-754 292 0
-754 309 0
-755 292 0
-755 309 0
-756 294 0
-756 299 0
-757 294 0
-757 299 0
-60 750 751 752 753 754 755 756 757 0
-758 290 0
-758 297 0
-759 290 0
-759 297 0
-760 293 0
-760 299 0
-761 293 0
-761 299 0
-61 758 759 760 761 0
-762 297 0
-762 300 0
-763 297 0
-763 300 0
-62 762 763 0
-764 297 0
-764 307 0
-765 297 0
-765 307 0
-766 298 0
-766 303 0
-767 298 0
-767 303 0
-63 764 765 766 767 0
-768 296 0
-768 303 0
-769 296 0
-769 303 0
-770 297 0
-770 306 0
-771 297 0
-771 306 0
-64 768 769 770 771 0
-772 293 0
-772 294 0
-773 293 0
-773 294 0
-774 297 0
-774 301 0
-775 297 0
-775 301 0
-65 772 773 774 775 0
-66 0
-776 296 0
-776 298 0
-777 296 0
-777 298 0
-778 304 0
-778 310 0
-779 304 0
-779 310 0
-780 306 0
-780 307 0
-781 306 0
-781 307 0
-67 776 777 778 779 780 781 0
-782 303 0
-782 310 0
-783 303 0
-783 310 0
-784 305 0
-784 311 0
-785 305 0
-785 311 0
-68 782 783 784 785 0
-786 304 0
-786 311 0
-787 304 0
-787 311 0
-69 786 787 0
-788 291 0
-788 293 0
-789 291 0
-789 293 0
-790 309 0
-790 311 0
-791 309 0
-791 311 0
-70 788 789 790 791 0
-71 0
-792 315 0
-792 334 0
-793 315 0
-793 334 0
-794 316 0
-794 331 0
-795 316 0
-795 331 0
-72 792 793 794 795 0
-796 314 0
-796 334 0
-797 314 0
-797 334 0
-798 316 0
-798 332 0
-799 316 0
-799 332 0
-73 796 797 798 799 0
-800 313 0
-800 324 0
-801 313 0
-801 324 0
-802 314 0
-802 331 0
-803 314 0
-803 331 0
-804 315 0
-804 332 0
-805 315 0
-805 332 0
-806 317 0
-806 322 0
-807 317 0
-807 322 0
-74 800 801 802 803 804 805 806 807 0
-808 313 0
-808 320 0
-809 313 0
-809 320 0
-810 316 0
-810 322 0
-811 316 0
-811 322 0
-75 808 809 810 811 0
-812 320 0
-812 323 0
-813 320 0
-813 323 0
-76 812 813 0
-814 320 0
-814 330 0
-815 320 0
-815 330 0
-816 321 0
-816 326 0
-817 321 0
-817 326 0
-77 814 815 816 817 0
-818 319 0
-818 326 0
-819 319 0
-819 326 0
-820 320 0
-820 329 0
-821 320 0
-821 329 0
-78 818 819 820 821 0
-822 316 0
-822 317 0
-823 316 0
-823 317 0
-824 320 0
-824 324 0
-825 320 0
-825 324 0
-79 822 823 824 825 0
-80 0
-826 319 0
-826 321 0
-827 319 0
-827 321 0
-828 327 0
-828 333 0
-829 327 0
-829 333 0
-830 329 0
-830 330 0
-831 329 0
-831 330 0
-81 826 827 828 829 830 831 0
-832 326 0
-832 333 0
-833 326 0
-833 333 0
-834 328 0
-834 334 0
-835 328 0
-835 334 0
-82 832 833 834 835 0
-836 327 0
-836 334 0
-837 327 0
-837 334 0
-83 836 837 0
-838 314 0
-838 316 0
-839 314 0
-839 316 0
-840 332 0
-840 334 0
-841 332 0
-841 334 0
-84 838 839 840 841 0
-85 0
-842 338 0
-842 357 0
-843 338 0
-843 357 0
-844 339 0
-844 354 0
-845 339 0
-845 354 0
-86 842 843 844 845 0
-846 337 0
-846 357 0
-847 337 0
-847 357 0
-848 339 0
-848 355 0
-849 339 0
-849 355 0
-87 846 847 848 849 0
-850 336 0
-850 347 0
-851 336 0
-851 347 0
-852 337 0
-852 354 0
-853 337 0
-853 354 0
-854 338 0
-854 355 0
-855 338 0
-855 355 0
-856 340 0
-856 345 0
-857 340 0
-857 345 0
-88 850 851 852 853 854 855 856 857 0
-858 336 0
-858 343 0
-859 336 0
-859 343 0
-860 339 0
-860 345 0
-861 339 0
-861 345 0
-89 858 859 860 861 0
-862 343 0
-862 346 0
-863 343 0
-863 346 0
-90 862 863 0
-864 343 0
-864 353 0
-865 343 0
-865 353 0
-866 344 0
-866 349 0
-867 344 0
-867 349 0
-91 864 865 866 867 0
-868 342 0
-868 349 0
-869 342 0
-869 349 0
-870 343 0
-870 352 0
-871 343 0
-871 352 0
-92 868 869 870 871 0
-872 339 0
-872 340 0
-873 339 0
-873 340 0
-874 343 0
-874 347 0
-875 343 0
-875 347 0
-93 872 873 874 875 0
-94 0
-876 342 0
-876 344 0
-877 342 0
-877 344 0
-878 350 0
-878 356 0
-879 350 0
-879 356 0
-880 352 0
-880 353 0
-881 352 0
-881 353 0
-95 876 877 878 879 880 881 0
-882 349 0
-882 356 0
-883 349 0
-883 356 0
-884 351 0
-884 357 0
-885 351 0
-885 357 0
-96 882 883 884 885 0
-886 350 0
-886 357 0
-887 350 0
-887 357 0
-97 886 887 0
-888 337 0
-888 339 0
-889 337 0
-889 339 0
-890 355 0
-890 357 0
-891 355 0
-891 357 0
-98 888 889 890 891 0
-99 0
-892 361 0
-892 380 0
-893 361 0
-893 380 0
-894 362 0
-894 377 0
-895 362 0
-895 377 0
-100 892 893 894 895 0
-896 360 0
-896 380 0
-897 360 0
-897 380 0
-898 362 0
-898 378 0
-899 362 0
-899 378 0
-101 896 897 898 899 0
-900 359 0
-900 370 0
-901 359 0
-901 370 0
-902 360 0
-902 377 0
-903 360 0
-903 377 0
-904 361 0
-904 378 0
-905 361 0
-905 378 0
-906 363 0
-906 368 0
-907 363 0
-907 368 0
-102 900 901 902 903 904 905 906 907 0
-908 359 0
-908 366 0
-909 359 0
-909 366 0
-910 362 0
-910 368 0
-911 362 0
-911 368 0
-103 908 909 910 911 0
-912 366 0
-912 369 0
-913 366 0
-913 369 0
-104 912 913 0
-914 366 0
-914 376 0
-915 366 0
-915 376 0
-916 367 0
-916 372 0
-917 367 0
-917 372 0
-105 914 915 916 917 0
-918 365 0
-918 372 0
-919 365 0
-919 372 0
-920 366 0
-920 375 0
-921 366 0
-921 375 0
-106 918 919 920 921 0
-922 362 0
-922 363 0
-923 362 0
-923 363 0
-924 366 0
-924 370 0
-925 366 0
-925 370 0
-107 922 923 924 925 0
-108 0
-926 365 0
-926 367 0
-927 365 0
-927 367 0
-928 373 0
-928 379 0
-929 373 0
-929 379 0
-930 375 0
-930 376 0
-931 375 0
-931 376 0
-109 926 927 928 929 930 931 0
-932 372 0
-932 379 0
-933 372 0
-933 379 0
-934 374 0
-934 380 0
-935 374 0
-935 380 0
-110 932 933 934 935 0
-936 373 0
-936 380 0
-937 373 0
-937 380 0
-111 936 937 0
-938 360 0
-938 362 0
-939 360 0
-939 362 0
-940 378 0
-940 380 0
-941 378 0
-941 380 0
-112 938 939 940 941 0
-113 0
-942 384 0
-942 403 0
-943 384 0
-943 403 0
-944 385 0
-944 400 0
-945 385 0
-945 400 0
-114 942 943 944 945 0
-946 383 0
-946 403 0
-947 383 0
-947 403 0
-948 385 0
-948 401 0
-949 385 0
-949 401 0
-115 946 947 948 949 0
-950 382 0
-950 393 0
-951 382 0
-951 393 0
-952 383 0
-952 400 0
-953 383 0
-953 400 0
-954 384 0
-954 401 0
-955 384 0
-955 401 0
-956 386 0
-956 391 0
-957 386 0
-957 391 0
-116 950 951 952 953 954 955 956 957 0
-958 382 0
-958 389 0
-959 382 0
-959 389 0
-960 385 0
-960 391 0
-961 385 0
-961 391 0
-117 958 959 960 961 0
-962 389 0
-962 392 0
-963 389 0
-963 392 0
-118 962 963 0
-964 389 0
-964 399 0
-965 389 0
-965 399 0
-966 390 0
-966 395 0
-967 390 0
-967 395 0
-119 964 965 966 967 0
-968 388 0
-968 395 0
-969 388 0
-969 395 0
-970 389 0
-970 398 0
-971 389 0
-971 398 0
-120 968 969 970 971 0
-972 385 0
-972 386 0
-973 385 0
-973 386 0
-974 389 0
-974 393 0
-975 389 0
-975 393 0
-121 972 973 974 975 0
-122 0
-976 388 0
-976 390 0
-977 388 0
-977 390 0
-978 396 0
-978 402 0
-979 396 0
-979 402 0
-980 398 0
-980 399 0
-981 398 0
-981 399 0
-123 976 977 978 979 980 981 0
-982 395 0
-982 402 0
-983 395 0
-983 402 0
-984 397 0
-984 403 0
-985 397 0
-985 403 0
-124 982 983 984 985 0
-986 396 0
-986 403 0
-987 396 0
-987 403 0
-125 986 987 0
-988 383 0
-988 385 0
-989 383 0
-989 385 0
-990 401 0
-990 403 0
-991 401 0
-991 403 0
-126 988 989 990 991 0
-127 0
-992 407 0
-992 426 0
-993 407 0
-993 426 0
-994 408 0
-994 423 0
-995 408 0
-995 423 0
-128 992 993 994 995 0
-996 406 0
-996 426 0
-997 406 0
-997 426 0
-998 408 0
-998 424 0
-999 408 0
-999 424 0
-129 996 997 998 999 0
-1000 405 0
-1000 416 0
-1001 405 0
-1001 416 0
-1002 406 0
-1002 423 0
-1003 406 0
-1003 423 0
-1004 407 0
-1004 424 0
-1005 407 0
-1005 424 0
-1006 409 0
-1006 414 0
-1007 409 0
-1007 414 0
-130 1000 1001 1002 1003 1004 1005 1006 1007 0
-1008 405 0
-1008 412 0
-1009 405 0
-1009 412 0
-1010 408 0
-1010 414 0
-1011 408 0
-1011 414 0
-131 1008 1009 1010 1011 0
-1012 412 0
-1012 415 0
-1013 412 0
-1013 415 0
-132 1012 1013 0
-1014 412 0
-1014 422 0
-1015 412 0
-1015 422 0
-1016 413 0
-1016 418 0
-1017 413 0
-1017 418 0
-133 1014 1015 1016 1017 0
-1018 411 0
-1018 418 0
-1019 411 0
-1019 418 0
-1020 412 0
-1020 421 0
-1021 412 0
-1021 421 0
-134 1018 1019 1020 1021 0
-1022 408 0
-1022 409 0
-1023 408 0
-1023 409 0
-1024 412 0
-1024 416 0
-1025 412 0
-1025 416 0
-135 1022 1023 1024 1025 0
-136 0
-1026 411 0
-1026 413 0
-1027 411 0
-1027 413 0
-1028 419 0
-1028 425 0
-1029 419 0
-1029 425 0
-1030 421 0
-1030 422 0
-1031 421 0
-1031 422 0
-137 1026 1027 1028 1029 1030 1031 0
-1032 418 0
-1032 425 0
-1033 418 0
-1033 425 0
-1034 420 0
-1034 426 0
-1035 420 0
-1035 426 0
-138 1032 1033 1034 1035 0
-1036 419 0
-1036 426 0
-1037 419 0
-1037 426 0
-139 1036 1037 0
-1038 406 0
-1038 408 0
-1039 406 0
-1039 408 0
-1040 424 0
-1040 426 0
-1041 424 0
-1041 426 0
-140 1038 1039 1040 1041 0
-141 0
-1042 430 0
-1042 449 0
-1043 430 0
-1043 449 0
-1044 431 0
-1044 446 0
-1045 431 0
-1045 446 0
-142 1042 1043 1044 1045 0
-1046 429 0
-1046 449 0
-1047 429 0
-1047 449 0
-1048 431 0
-1048 447 0
-1049 431 0
-1049 447 0
-143 1046 1047 1048 1049 0
-1050 428 0
-1050 439 0
-1051 428 0
-1051 439 0
-1052 429 0
-1052 446 0
-1053 429 0
-1053 446 0
-1054 430 0
-1054 447 0
-1055 430 0
-1055 447 0
-1056 432 0
-1056 437 0
-1057 432 0
-1057 437 0
-144 1050 1051 1052 1053 1054 1055 1056 1057 0
-1058 428 0
-1058 435 0
-1059 428 0
-1059 435 0
-1060 431 0
-1060 437 0
-1061 431 0
-1061 437 0
-145 1058 1059 1060 1061 0
-1062 435 0
-1062 438 0
-1063 435 0
-1063 438 0
-146 1062 1063 0
-1064 435 0
-1064 445 0
-1065 435 0
-1065 445 0
-1066 436 0
-1066 441 0
-1067 436 0
-1067 441 0
-147 1064 1065 1066 1067 0
-1068 434 0
-1068 441 0
-1069 434 0
-1069 441 0
-1070 435 0
-1070 444 0
-1071 435 0
-1071 444 0
-148 1068 1069 1070 1071 0
-1072 431 0
-1072 432 0
-1073 431 0
-1073 432 0
-1074 435 0
-1074 439 0
-1075 435 0
-1075 439 0
-149 1072 1073 1074 1075 0
-150 0
-1076 434 0
-1076 436 0
-1077 434 0
-1077 436 0
-1078 442 0
-1078 448 0
-1079 442 0
-1079 448 0
-1080 444 0
-1080 445 0
-1081 444 0
-1081 445 0
-151 1076 1077 1078 1079 1080 1081 0
-1082 441 0
-1082 448 0
-1083 441 0
-1083 448 0
-1084 443 0
-1084 449 0
-1085 443 0
-1085 449 0
-152 1082 1083 1084 1085 0
-1086 442 0
-1086 449 0
-1087 442 0
-1087 449 0
-153 1086 1087 0
-1088 429 0
-1088 431 0
-1089 429 0
-1089 431 0
-1090 447 0
-1090 449 0
-1091 447 0
-1091 449 0
-154 1088 1089 1090 1091 0
-155 0
-1092 453 0
-1092 472 0
-1093 453 0
-1093 472 0
-1094 454 0
-1094 469 0
-1095 454 0
-1095 469 0
-156 1092 1093 1094 1095 0
-1096 452 0
-1096 472 0
-1097 452 0
-1097 472 0
-1098 454 0
-1098 470 0
-1099 454 0
-1099 470 0
-157 1096 1097 1098 1099 0
-1100 451 0
-1100 462 0
-1101 451 0
-1101 462 0
-1102 452 0
-1102 469 0
-1103 452 0
-1103 469 0
-1104 453 0
-1104 470 0
-1105 453 0
-1105 470 0
-1106 455 0
-1106 460 0
-1107 455 0
-1107 460 0
-158 1100 1101 1102 1103 1104 1105 1106 1107 0
-1108 451 0
-1108 458 0
-1109 451 0
-1109 458 0
-1110 454 0
-1110 460 0
-1111 454 0
-1111 460 0
-159 1108 1109 1110 1111 0
-1112 458 0
-1112 461 0
-1113 458 0
-1113 461 0
-160 1112 1113 0
-1114 458 0
-1114 468 0
-1115 458 0
-1115 468 0
-1116 459 0
-1116 464 0
-1117 459 0
-1117 464 0
-161 1114 1115 1116 1117 0
-1118 457 0
-1118 464 0
-1119 457 0
-1119 464 0
-1120 458 0
-1120 467 0
-1121 458 0
-1121 467 0
-162 1118 1119 1120 1121 0
-1122 454 0
-1122 455 0
-1123 454 0
-1123 455 0
-1124 458 0
-1124 462 0
-1125 458 0
-1125 462 0
-163 1122 1123 1124 1125 0
-164 0
-1126 457 0
-1126 459 0
-1127 457 0
-1127 459 0
-1128 465 0
-1128 471 0
-1129 465 0
-1129 471 0
-1130 467 0
-1130 468 0
-1131 467 0
-1131 468 0
-165 1126 1127 1128 1129 1130 1131 0
-1132 464 0
-1132 471 0
-1133 464 0
-1133 471 0
-1134 466 0
-1134 472 0
-1135 466 0
-1135 472 0
-166 1132 1133 1134 1135 0
-1136 465 0
-1136 472 0
-1137 465 0
-1137 472 0
-167 1136 1137 0
-1138 452 0
-1138 454 0
-1139 452 0
-1139 454 0
-1140 470 0
-1140 472 0
-1141 470 0
-1141 472 0
-168 1138 1139 1140 1141 0
-169 0
-1142 476 0
-1142 495 0
-1143 476 0
-1143 495 0
-1144 477 0
-1144 492 0
-1145 477 0
-1145 492 0
-170 1142 1143 1144 1145 0
-1146 475 0
-1146 495 0
-1147 475 0
-1147 495 0
-1148 477 0
-1148 493 0
-1149 477 0
-1149 493 0
-171 1146 1147 1148 1149 0
-1150 474 0
-1150 485 0
-1151 474 0
-1151 485 0
-1152 475 0
-1152 492 0
-1153 475 0
-1153 492 0
-1154 476 0
-1154 493 0
-1155 476 0
-1155 493 0
-1156 478 0
-1156 483 0
-1157 478 0
-1157 483 0
-172 1150 1151 1152 1153 1154 1155 1156 1157 0
-1158 474 0
-1158 481 0
-1159 474 0
-1159 481 0
-1160 477 0
-1160 483 0
-1161 477 0
-1161 483 0
-173 1158 1159 1160 1161 0
-1162 481 0
-1162 484 0
-1163 481 0
-1163 484 0
-174 1162 1163 0
-1164 481 0
-1164 491 0
-1165 481 0
-1165 491 0
-1166 482 0
-1166 487 0
-1167 482 0
-1167 487 0
-175 1164 1165 1166 1167 0
-1168 480 0
-1168 487 0
-1169 480 0
-1169 487 0
-1170 481 0
-1170 490 0
-1171 481 0
-1171 490 0
-176 1168 1169 1170 1171 0
-1172 477 0
-1172 478 0
-1173 477 0
-1173 478 0
-1174 481 0
-1174 485 0
-1175 481 0
-1175 485 0
-177 1172 1173 1174 1175 0
-178 0
-1176 480 0
-1176 482 0
-1177 480 0
-1177 482 0
-1178 488 0
-1178 494 0
-1179 488 0
-1179 494 0
-1180 490 0
-1180 491 0
-1181 490 0
-1181 491 0
-179 1176 1177 1178 1179 1180 1181 0
-1182 487 0
-1182 494 0
-1183 487 0
-1183 494 0
-1184 489 0
-1184 495 0
-1185 489 0
-1185 495 0
-180 1182 1183 1184 1185 0
-1186 488 0
-1186 495 0
-1187 488 0
-1187 495 0
-181 1186 1187 0
-1188 475 0
-1188 477 0
-1189 475 0
-1189 477 0
-1190 493 0
-1190 495 0
-1191 493 0
-1191 495 0
-182 1188 1189 1190 1191 0
-183 0
-1192 499 0
-1192 518 0
-1193 499 0
-1193 518 0
-1194 500 0
-1194 515 0
-1195 500 0
-1195 515 0
-184 1192 1193 1194 1195 0
-1196 498 0
-1196 518 0
-1197 498 0
-1197 518 0
-1198 500 0
-1198 516 0
-1199 500 0
-1199 516 0
-185 1196 1197 1198 1199 0
-1200 497 0
-1200 508 0
-1201 497 0
-1201 508 0
-1202 498 0
-1202 515 0
-1203 498 0
-1203 515 0
-1204 499 0
-1204 516 0
-1205 499 0
-1205 516 0
-1206 501 0
-1206 506 0
-1207 501 0
-1207 506 0
-186 1200 1201 1202 1203 1204 1205 1206 1207 0
-1208 497 0
-1208 504 0
-1209 497 0
-1209 504 0
-1210 500 0
-1210 506 0
-1211 500 0
-1211 506 0
-187 1208 1209 1210 1211 0
-1212 504 0
-1212 507 0
-1213 504 0
-1213 507 0
-188 1212 1213 0
-1214 504 0
-1214 514 0
-1215 504 0
-1215 514 0
-1216 505 0
-1216 510 0
-1217 505 0
-1217 510 0
-189 1214 1215 1216 1217 0
-1218 503 0
-1218 510 0
-1219 503 0
-1219 510 0
-1220 504 0
-1220 513 0
-1221 504 0
-1221 513 0
-190 1218 1219 1220 1221 0
-1222 500 0
-1222 501 0
-1223 500 0
-1223 501 0
-1224 504 0
-1224 508 0
-1225 504 0
-1225 508 0
-191 1222 1223 1224 1225 0
-192 0
-1226 503 0
-1226 505 0
-1227 503 0
-1227 505 0
-1228 511 0
-1228 517 0
-1229 511 0
-1229 517 0
-1230 513 0
-1230 514 0
-1231 513 0
-1231 514 0
-193 1226 1227 1228 1229 1230 1231 0
-1232 510 0
-1232 517 0
-1233 510 0
-1233 517 0
-1234 512 0
-1234 518 0
-1235 512 0
-1235 518 0
-194 1232 1233 1234 1235 0
-1236 511 0
-1236 518 0
-1237 511 0
-1237 518 0
-195 1236 1237 0
-1238 498 0
-1238 500 0
-1239 498 0
-1239 500 0
-1240 516 0
-1240 518 0
-1241 516 0
-1241 518 0
-196 1238 1239 1240 1241 0
