p cnf 1101 2752
-1 -2 0
-1 -3 0
-1 -4 0
-1 -5 0
-1 -6 0
-1 -7 0
-1 -8 0
-1 -9 0
-1 -10 0
-1 -11 0
-1 -12 0
-1 -13 0
-2 -3 0
-2 -4 0
-2 -5 0
-2 -6 0
-2 -7 0
-2 -8 0
-2 -9 0
-2 -10 0
-2 -11 0
-2 -12 0
-2 -13 0
-3 -4 0
-3 -5 0
-3 -6 0
-3 -7 0
-3 -8 0
-3 -9 0
-3 -10 0
-3 -11 0
-3 -12 0
-3 -13 0
-4 -5 0
-4 -6 0
-4 -7 0
-4 -8 0
-4 -9 0
-4 -10 0
-4 -11 0
-4 -12 0
-4 -13 0
-5 -6 0
-5 -7 0
-5 -8 0
-5 -9 0
-5 -10 0
-5 -11 0
-5 -12 0
-5 -13 0
-6 -7 0
-6 -8 0
-6 -9 0
-6 -10 0
-6 -11 0
-6 -12 0
-6 -13 0
-7 -8 0
-7 -9 0
-7 -10 0
-7 -11 0
-7 -12 0
-7 -13 0
-8 -9 0
-8 -10 0
-8 -11 0
-8 -12 0
-8 -13 0
-9 -10 0
-9 -11 0
-9 -12 0
-9 -13 0
-10 -11 0
-10 -12 0
-10 -13 0
-11 -12 0
-11 -13 0
-12 -13 0
-192 170 1 0
-193 171 2 0
-194 172 3 0
-195 173 4 0
-196 174 5 0
-197 175 6 0
-198 176 0
-199 177 7 0
-200 178 8 0
-201 179 9 0
-202 180 0
-203 181 0
-204 182 0
-205 183 10 0
-206 184 11 0
-207 185 0
-208 186 12 0
-209 187 0
-210 188 0
-211 189 0
-212 190 13 0
-213 191 0
-14 -15 0
-14 -16 0
-14 -17 0
-14 -18 0
-14 -19 0
-14 -20 0
-14 -21 0
-14 -22 0
-14 -23 0
-14 -24 0
-14 -25 0
-14 -26 0
-15 -16 0
-15 -17 0
-15 -18 0
-15 -19 0
-15 -20 0
-15 -21 0
-15 -22 0
-15 -23 0
-15 -24 0
-15 -25 0
-15 -26 0
-16 -17 0
-16 -18 0
-16 -19 0
-16 -20 0
-16 -21 0
-16 -22 0
-16 -23 0
-16 -24 0
-16 -25 0
-16 -26 0
-17 -18 0
-17 -19 0
-17 -20 0
-17 -21 0
-17 -22 0
-17 -23 0
-17 -24 0
-17 -25 0
-17 -26 0
-18 -19 0
-18 -20 0
-18 -21 0
-18 -22 0
-18 -23 0
-18 -24 0
-18 -25 0
-18 -26 0
-19 -20 0
-19 -21 0
-19 -22 0
-19 -23 0
-19 -24 0
-19 -25 0
-19 -26 0
-20 -21 0
-20 -22 0
-20 -23 0
-20 -24 0
-20 -25 0
-20 -26 0
-21 -22 0
-21 -23 0
-21 -24 0
-21 -25 0
-21 -26 0
-22 -23 0
-22 -24 0
-22 -25 0
-22 -26 0
-23 -24 0
-23 -25 0
-23 -26 0
-24 -25 0
-24 -26 0
-25 -26 0
-214 192 14 0
-215 193 15 0
-216 194 16 0
-217 195 17 0
-218 196 18 0
-219 197 19 0
-220 198 0
-221 199 20 0
-222 200 21 0
-223 201 22 0
-224 202 0
-225 203 0
-226 204 0
-227 205 23 0
-228 206 24 0
-229 207 0
-230 208 25 0
-231 209 0
-232 210 0
-233 211 0
-234 212 26 0
-235 213 0
-27 -28 0
-27 -29 0
-27 -30 0
-27 -31 0
-27 -32 0
-27 -33 0
-27 -34 0
-27 -35 0
-27 -36 0
-27 -37 0
-27 -38 0
-27 -39 0
-28 -29 0
-28 -30 0
-28 -31 0
-28 -32 0
-28 -33 0
-28 -34 0
-28 -35 0
-28 -36 0
-28 -37 0
-28 -38 0
-28 -39 0
-29 -30 0
-29 -31 0
-29 -32 0
-29 -33 0
-29 -34 0
-29 -35 0
-29 -36 0
-29 -37 0
-29 -38 0
-29 -39 0
-30 -31 0
-30 -32 0
-30 -33 0
-30 -34 0
-30 -35 0
-30 -36 0
-30 -37 0
-30 -38 0
-30 -39 0
-31 -32 0
-31 -33 0
-31 -34 0
-31 -35 0
-31 -36 0
-31 -37 0
-31 -38 0
-31 -39 0
-32 -33 0
-32 -34 0
-32 -35 0
-32 -36 0
-32 -37 0
-32 -38 0
-32 -39 0
-33 -34 0
-33 -35 0
-33 -36 0
-33 -37 0
-33 -38 0
-33 -39 0
-34 -35 0
-34 -36 0
-34 -37 0
-34 -38 0
-34 -39 0
-35 -36 0
-35 -37 0
-35 -38 0
-35 -39 0
-36 -37 0
-36 -38 0
-36 -39 0
-37 -38 0
-37 -39 0
-38 -39 0
-236 214 27 0
-237 215 28 0
-238 216 29 0
-239 217 30 0
-240 218 31 0
-241 219 32 0
-242 220 0
-243 221 33 0
-244 222 34 0
-245 223 35 0
-246 224 0
-247 225 0
-248 226 0
-249 227 36 0
-250 228 37 0
-251 229 0
-252 230 38 0
-253 231 0
-254 232 0
-255 233 0
-256 234 39 0
-257 235 0
-40 -41 0
-40 -42 0
-40 -43 0
-40 -44 0
-40 -45 0
-40 -46 0
-40 -47 0
-40 -48 0
-40 -49 0
-40 -50 0
-40 -51 0
-40 -52 0
-41 -42 0
-41 -43 0
-41 -44 0
-41 -45 0
-41 -46 0
-41 -47 0
-41 -48 0
-41 -49 0
-41 -50 0
-41 -51 0
-41 -52 0
-42 -43 0
-42 -44 0
-42 -45 0
-42 -46 0
-42 -47 0
-42 -48 0
-42 -49 0
-42 -50 0
-42 -51 0
-42 -52 0
-43 -44 0
-43 -45 0
-43 -46 0
-43 -47 0
-43 -48 0
-43 -49 0
-43 -50 0
-43 -51 0
-43 -52 0
-44 -45 0
-44 -46 0
-44 -47 0
-44 -48 0
-44 -49 0
-44 -50 0
-44 -51 0
-44 -52 0
-45 -46 0
-45 -47 0
-45 -48 0
-45 -49 0
-45 -50 0
-45 -51 0
-45 -52 0
-46 -47 0
-46 -48 0
-46 -49 0
-46 -50 0
-46 -51 0
-46 -52 0
-47 -48 0
-47 -49 0
-47 -50 0
-47 -51 0
-47 -52 0
-48 -49 0
-48 -50 0
-48 -51 0
-48 -52 0
-49 -50 0
-49 -51 0
-49 -52 0
-50 -51 0
-50 -52 0
-51 -52 0
-258 236 40 0
-259 237 41 0
-260 238 42 0
-261 239 43 0
-262 240 44 0
-263 241 45 0
-264 242 0
-265 243 46 0
-266 244 47 0
-267 245 48 0
-268 246 0
-269 247 0
-270 248 0
-271 249 49 0
-272 250 50 0
-273 251 0
-274 252 51 0
-275 253 0
-276 254 0
-277 255 0
-278 256 52 0
-279 257 0
-53 -54 0
-53 -55 0
-53 -56 0
-53 -57 0
-53 -58 0
-53 -59 0
-53 -60 0
-53 -61 0
-53 -62 0
-53 -63 0
-53 -64 0
-53 -65 0
-54 -55 0
-54 -56 0
-54 -57 0
-54 -58 0
-54 -59 0
-54 -60 0
-54 -61 0
-54 -62 0
-54 -63 0
-54 -64 0
-54 -65 0
-55 -56 0
-55 -57 0
-55 -58 0
-55 -59 0
-55 -60 0
-55 -61 0
-55 -62 0
-55 -63 0
-55 -64 0
-55 -65 0
-56 -57 0
-56 -58 0
-56 -59 0
-56 -60 0
-56 -61 0
-56 -62 0
-56 -63 0
-56 -64 0
-56 -65 0
-57 -58 0
-57 -59 0
-57 -60 0
-57 -61 0
-57 -62 0
-57 -63 0
-57 -64 0
-57 -65 0
-58 -59 0
-58 -60 0
-58 -61 0
-58 -62 0
-58 -63 0
-58 -64 0
-58 -65 0
-59 -60 0
-59 -61 0
-59 -62 0
-59 -63 0
-59 -64 0
-59 -65 0
-60 -61 0
-60 -62 0
-60 -63 0
-60 -64 0
-60 -65 0
-61 -62 0
-61 -63 0
-61 -64 0
-61 -65 0
-62 -63 0
-62 -64 0
-62 -65 0
-63 -64 0
-63 -65 0
-64 -65 0
-280 258 53 0
-281 259 54 0
-282 260 55 0
-283 261 56 0
-284 262 57 0
-285 263 58 0
-286 264 0
-287 265 59 0
-288 266 60 0
-289 267 61 0
-290 268 0
-291 269 0
-292 270 0
-293 271 62 0
-294 272 63 0
-295 273 0
-296 274 64 0
-297 275 0
-298 276 0
-299 277 0
-300 278 65 0
-301 279 0
-66 -67 0
-66 -68 0
-66 -69 0
-66 -70 0
-66 -71 0
-66 -72 0
-66 -73 0
-66 -74 0
-66 -75 0
-66 -76 0
-66 -77 0
-66 -78 0
-67 -68 0
-67 -69 0
-67 -70 0
-67 -71 0
-67 -72 0
-67 -73 0
-67 -74 0
-67 -75 0
-67 -76 0
-67 -77 0
-67 -78 0
-68 -69 0
-68 -70 0
-68 -71 0
-68 -72 0
-68 -73 0
-68 -74 0
-68 -75 0
-68 -76 0
-68 -77 0
-68 -78 0
-69 -70 0
-69 -71 0
-69 -72 0
-69 -73 0
-69 -74 0
-69 -75 0
-69 -76 0
-69 -77 0
-69 -78 0
-70 -71 0
-70 -72 0
-70 -73 0
-70 -74 0
-70 -75 0
-70 -76 0
-70 -77 0
-70 -78 0
-71 -72 0
-71 -73 0
-71 -74 0
-71 -75 0
-71 -76 0
-71 -77 0
-71 -78 0
-72 -73 0
-72 -74 0
-72 -75 0
-72 -76 0
-72 -77 0
-72 -78 0
-73 -74 0
-73 -75 0
-73 -76 0
-73 -77 0
-73 -78 0
-74 -75 0
-74 -76 0
-74 -77 0
-74 -78 0
-75 -76 0
-75 -77 0
-75 -78 0
-76 -77 0
-76 -78 0
-77 -78 0
-302 280 66 0
-303 281 67 0
-304 282 68 0
-305 283 69 0
-306 284 70 0
-307 285 71 0
-308 286 0
-309 287 72 0
-310 288 73 0
-311 289 74 0
-312 290 0
-313 291 0
-314 292 0
-315 293 75 0
-316 294 76 0
-317 295 0
-318 296 77 0
-319 297 0
-320 298 0
-321 299 0
-322 300 78 0
-323 301 0
-79 -80 0
-79 -81 0
-79 -82 0
-79 -83 0
-79 -84 0
-79 -85 0
-79 -86 0
-79 -87 0
-79 -88 0
-79 -89 0
-79 -90 0
-79 -91 0
-80 -81 0
-80 -82 0
-80 -83 0
-80 -84 0
-80 -85 0
-80 -86 0
-80 -87 0
-80 -88 0
-80 -89 0
-80 -90 0
-80 -91 0
-81 -82 0
-81 -83 0
-81 -84 0
-81 -85 0
-81 -86 0
-81 -87 0
-81 -88 0
-81 -89 0
-81 -90 0
-81 -91 0
-82 -83 0
-82 -84 0
-82 -85 0
-82 -86 0
-82 -87 0
-82 -88 0
-82 -89 0
-82 -90 0
-82 -91 0
-83 -84 0
-83 -85 0
-83 -86 0
-83 -87 0
-83 -88 0
-83 -89 0
-83 -90 0
-83 -91 0
-84 -85 0
-84 -86 0
-84 -87 0
-84 -88 0
-84 -89 0
-84 -90 0
-84 -91 0
-85 -86 0
-85 -87 0
-85 -88 0
-85 -89 0
-85 -90 0
-85 -91 0
-86 -87 0
-86 -88 0
-86 -89 0
-86 -90 0
-86 -91 0
-87 -88 0
-87 -89 0
-87 -90 0
-87 -91 0
-88 -89 0
-88 -90 0
-88 -91 0
-89 -90 0
-89 -91 0
-90 -91 0
-324 302 79 0
-325 303 80 0
-326 304 81 0
-327 305 82 0
-328 306 83 0
-329 307 84 0
-330 308 0
-331 309 85 0
-332 310 86 0
-333 311 87 0
-334 312 0
-335 313 0
-336 314 0
-337 315 88 0
-338 316 89 0
-339 317 0
-340 318 90 0
-341 319 0
-342 320 0
-343 321 0
-344 322 91 0
-345 323 0
-92 -93 0
-92 -94 0
-92 -95 0
-92 -96 0
-92 -97 0
-92 -98 0
-92 -99 0
-92 -100 0
-92 -101 0
-92 -102 0
-92 -103 0
-92 -104 0
-93 -94 0
-93 -95 0
-93 -96 0
-93 -97 0
-93 -98 0
-93 -99 0
-93 -100 0
-93 -101 0
-93 -102 0
-93 -103 0
-93 -104 0
-94 -95 0
-94 -96 0
-94 -97 0
-94 -98 0
-94 -99 0
-94 -100 0
-94 -101 0
-94 -102 0
-94 -103 0
-94 -104 0
-95 -96 0
-95 -97 0
-95 -98 0
-95 -99 0
-95 -100 0
-95 -101 0
-95 -102 0
-95 -103 0
-95 -104 0
-96 -97 0
-96 -98 0
-96 -99 0
-96 -100 0
-96 -101 0
-96 -102 0
-96 -103 0
-96 -104 0
-97 -98 0
-97 -99 0
-97 -100 0
-97 -101 0
-97 -102 0
-97 -103 0
-97 -104 0
-98 -99 0
-98 -100 0
-98 -101 0
-98 -102 0
-98 -103 0
-98 -104 0
-99 -100 0
-99 -101 0
-99 -102 0
-99 -103 0
-99 -104 0
-100 -101 0
-100 -102 0
-100 -103 0
-100 -104 0
-101 -102 0
-101 -103 0
-101 -104 0
-102 -103 0
-102 -104 0
-103 -104 0
-346 324 92 0
-347 325 93 0
-348 326 94 0
-349 327 95 0
-350 328 96 0
-351 329 97 0
-352 330 0
-353 331 98 0
-354 332 99 0
-355 333 100 0
-356 334 0
-357 335 0
-358 336 0
-359 337 101 0
-360 338 102 0
-361 339 0
-362 340 103 0
-363 341 0
-364 342 0
-365 343 0
-366 344 104 0
-367 345 0
-105 -106 0
-105 -107 0
-105 -108 0
-105 -109 0
-105 -110 0
-105 -111 0
-105 -112 0
-105 -113 0
-105 -114 0
-105 -115 0
-105 -116 0
-105 -117 0
-106 -107 0
-106 -108 0
-106 -109 0
-106 -110 0
-106 -111 0
-106 -112 0
-106 -113 0
-106 -114 0
-106 -115 0
-106 -116 0
-106 -117 0
-107 -108 0
-107 -109 0
-107 -110 0
-107 -111 0
-107 -112 0
-107 -113 0
-107 -114 0
-107 -115 0
-107 -116 0
-107 -117 0
-108 -109 0
-108 -110 0
-108 -111 0
-108 -112 0
-108 -113 0
-108 -114 0
-108 -115 0
-108 -116 0
-108 -117 0
-109 -110 0
-109 -111 0
-109 -112 0
-109 -113 0
-109 -114 0
-109 -115 0
-109 -116 0
-109 -117 0
-110 -111 0
-110 -112 0
-110 -113 0
-110 -114 0
-110 -115 0
-110 -116 0
-110 -117 0
-111 -112 0
-111 -113 0
-111 -114 0
-111 -115 0
-111 -116 0
-111 -117 0
-112 -113 0
-112 -114 0
-112 -115 0
-112 -116 0
-112 -117 0
-113 -114 0
-113 -115 0
-113 -116 0
-113 -117 0
-114 -115 0
-114 -116 0
-114 -117 0
-115 -116 0
-115 -117 0
-116 -117 0
-368 346 105 0
-369 347 106 0
-370 348 107 0
-371 349 108 0
-372 350 109 0
-373 351 110 0
-374 352 0
-375 353 111 0
-376 354 112 0
-377 355 113 0
-378 356 0
-379 357 0
-380 358 0
-381 359 114 0
-382 360 115 0
-383 361 0
-384 362 116 0
-385 363 0
-386 364 0
-387 365 0
-388 366 117 0
-389 367 0
-118 -119 0
-118 -120 0
-118 -121 0
-118 -122 0
-118 -123 0
-118 -124 0
-118 -125 0
-118 -126 0
-118 -127 0
-118 -128 0
-118 -129 0
-118 -130 0
-119 -120 0
-119 -121 0
-119 -122 0
-119 -123 0
-119 -124 0
-119 -125 0
-119 -126 0
-119 -127 0
-119 -128 0
-119 -129 0
-119 -130 0
-120 -121 0
-120 -122 0
-120 -123 0
-120 -124 0
-120 -125 0
-120 -126 0
-120 -127 0
-120 -128 0
-120 -129 0
-120 -130 0
-121 -122 0
-121 -123 0
-121 -124 0
-121 -125 0
-121 -126 0
-121 -127 0
-121 -128 0
-121 -129 0
-121 -130 0
-122 -123 0
-122 -124 0
-122 -125 0
-122 -126 0
-122 -127 0
-122 -128 0
-122 -129 0
-122 -130 0
-123 -124 0
-123 -125 0
-123 -126 0
-123 -127 0
-123 -128 0
-123 -129 0
-123 -130 0
-124 -125 0
-124 -126 0
-124 -127 0
-124 -128 0
-124 -129 0
-124 -130 0
-125 -126 0
-125 -127 0
-125 -128 0
-125 -129 0
-125 -130 0
-126 -127 0
-126 -128 0
-126 -129 0
-126 -130 0
-127 -128 0
-127 -129 0
-127 -130 0
-128 -129 0
-128 -130 0
-129 -130 0
-390 368 118 0
-391 369 119 0
-392 370 120 0
-393 371 121 0
-394 372 122 0
-395 373 123 0
-396 374 0
-397 375 124 0
-398 376 125 0
-399 377 126 0
-400 378 0
-401 379 0
-402 380 0
-403 381 127 0
-404 382 128 0
-405 383 0
-406 384 129 0
-407 385 0
-408 386 0
-409 387 0
-410 388 130 0
-411 389 0
-131 -132 0
-131 -133 0
-131 -134 0
-131 -135 0
-131 -136 0
-131 -137 0
-131 -138 0
-131 -139 0
-131 -140 0
-131 -141 0
-131 -142 0
-131 -143 0
-132 -133 0
-132 -134 0
-132 -135 0
-132 -136 0
-132 -137 0
-132 -138 0
-132 -139 0
-132 -140 0
-132 -141 0
-132 -142 0
-132 -143 0
-133 -134 0
-133 -135 0
-133 -136 0
-133 -137 0
-133 -138 0
-133 -139 0
-133 -140 0
-133 -141 0
-133 -142 0
-133 -143 0
-134 -135 0
-134 -136 0
-134 -137 0
-134 -138 0
-134 -139 0
-134 -140 0
-134 -141 0
-134 -142 0
-134 -143 0
-135 -136 0
-135 -137 0
-135 -138 0
-135 -139 0
-135 -140 0
-135 -141 0
-135 -142 0
-135 -143 0
-136 -137 0
-136 -138 0
-136 -139 0
-136 -140 0
-136 -141 0
-136 -142 0
-136 -143 0
-137 -138 0
-137 -139 0
-137 -140 0
-137 -141 0
-137 -142 0
-137 -143 0
-138 -139 0
-138 -140 0
-138 -141 0
-138 -142 0
-138 -143 0
-139 -140 0
-139 -141 0
-139 -142 0
-139 -143 0
-140 -141 0
-140 -142 0
-140 -143 0
-141 -142 0
-141 -143 0
-142 -143 0
-412 390 131 0
-413 391 132 0
-414 392 133 0
-415 393 134 0
-416 394 135 0
-417 395 136 0
-418 396 0
-419 397 137 0
-420 398 138 0
-421 399 139 0
-422 400 0
-423 401 0
-424 402 0
-425 403 140 0
-426 404 141 0
-427 405 0
-428 406 142 0
-429 407 0
-430 408 0
-431 409 0
-432 410 143 0
-433 411 0
-144 -145 0
-144 -146 0
-144 -147 0
-144 -148 0
-144 -149 0
-144 -150 0
-144 -151 0
-144 -152 0
-144 -153 0
-144 -154 0
-144 -155 0
-144 -156 0
-145 -146 0
-145 -147 0
-145 -148 0
-145 -149 0
-145 -150 0
-145 -151 0
-145 -152 0
-145 -153 0
-145 -154 0
-145 -155 0
-145 -156 0
-146 -147 0
-146 -148 0
-146 -149 0
-146 -150 0
-146 -151 0
-146 -152 0
-146 -153 0
-146 -154 0
-146 -155 0
-146 -156 0
-147 -148 0
-147 -149 0
-147 -150 0
-147 -151 0
-147 -152 0
-147 -153 0
-147 -154 0
-147 -155 0
-147 -156 0
-148 -149 0
-148 -150 0
-148 -151 0
-148 -152 0
-148 -153 0
-148 -154 0
-148 -155 0
-148 -156 0
-149 -150 0
-149 -151 0
-149 -152 0
-149 -153 0
-149 -154 0
-149 -155 0
-149 -156 0
-150 -151 0
-150 -152 0
-150 -153 0
-150 -154 0
-150 -155 0
-150 -156 0
-151 -152 0
-151 -153 0
-151 -154 0
-151 -155 0
-151 -156 0
-152 -153 0
-152 -154 0
-152 -155 0
-152 -156 0
-153 -154 0
-153 -155 0
-153 -156 0
-154 -155 0
-154 -156 0
-155 -156 0
-434 412 144 0
-435 413 145 0
-436 414 146 0
-437 415 147 0
-438 416 148 0
-439 417 149 0
-440 418 0
-441 419 150 0
-442 420 151 0
-443 421 152 0
-444 422 0
-445 423 0
-446 424 0
-447 425 153 0
-448 426 154 0
-449 427 0
-450 428 155 0
-451 429 0
-452 430 0
-453 431 0
-454 432 156 0
-455 433 0
-157 -158 0
-157 -159 0
-157 -160 0
-157 -161 0
-157 -162 0
-157 -163 0
-157 -164 0
-157 -165 0
-157 -166 0
-157 -167 0
-157 -168 0
-157 -169 0
-158 -159 0
-158 -160 0
-158 -161 0
-158 -162 0
-158 -163 0
-158 -164 0
-158 -165 0
-158 -166 0
-158 -167 0
-158 -168 0
-158 -169 0
-159 -160 0
-159 -161 0
-159 -162 0
-159 -163 0
-159 -164 0
-159 -165 0
-159 -166 0
-159 -167 0
-159 -168 0
-159 -169 0
-160 -161 0
-160 -162 0
-160 -163 0
-160 -164 0
-160 -165 0
-160 -166 0
-160 -167 0
-160 -168 0
-160 -169 0
-161 -162 0
-161 -163 0
-161 -164 0
-161 -165 0
-161 -166 0
-161 -167 0
-161 -168 0
-161 -169 0
-162 -163 0
-162 -164 0
-162 -165 0
-162 -166 0
-162 -167 0
-162 -168 0
-162 -169 0
-163 -164 0
-163 -165 0
-163 -166 0
-163 -167 0
-163 -168 0
-163 -169 0
-164 -165 0
-164 -166 0
-164 -167 0
-164 -168 0
-164 -169 0
-165 -166 0
-165 -167 0
-165 -168 0
-165 -169 0
-166 -167 0
-166 -168 0
-166 -169 0
-167 -168 0
-167 -169 0
-168 -169 0
-456 434 157 0
-457 435 158 0
-458 436 159 0
-459 437 160 0
-460 438 161 0
-461 439 162 0
-462 440 0
-463 441 163 0
-464 442 164 0
-465 443 165 0
-466 444 0
-467 445 0
-468 446 0
-469 447 166 0
-470 448 167 0
-471 449 0
-472 450 168 0
-473 451 0
-474 452 0
-475 453 0
-476 454 169 0
-477 455 0
-170 0
-171 0
-172 0
-173 0
-174 0
-175 0
176 0
-177 0
-178 0
-179 0
180 0
181 0
182 0
-183 0
-184 0
185 0
-186 0
187 0
188 0
189 0
-190 0
191 0
1 14 27 40 53 66 79 92 105 118 131 144 157 0
2 15 28 41 54 67 80 93 106 119 132 145 158 0
3 16 29 42 55 68 81 94 107 120 133 146 159 0
4 17 30 43 56 69 82 95 108 121 134 147 160 0
5 18 31 44 57 70 83 96 109 122 135 148 161 0
6 19 32 45 58 71 84 97 110 123 136 149 162 0
7 20 33 46 59 72 85 98 111 124 137 150 163 0
8 21 34 47 60 73 86 99 112 125 138 151 164 0
9 22 35 48 61 74 87 100 113 126 139 152 165 0
10 23 36 49 62 75 88 101 114 127 140 153 166 0
11 24 37 50 63 76 89 102 115 128 141 154 167 0
12 25 38 51 64 77 90 103 116 129 142 155 168 0
13 26 39 52 65 78 91 104 117 130 143 156 169 0
-478 171 0
-478 187 0
-479 171 0
-479 187 0
-1 478 479 0
-480 170 0
-480 187 0
-481 170 0
-481 187 0
-482 172 0
-482 182 0
-483 172 0
-483 182 0
-484 175 0
-484 181 0
-485 175 0
-485 181 0
-2 480 481 482 483 484 485 0
-486 171 0
-486 182 0
-487 171 0
-487 182 0
-488 173 0
-488 188 0
-489 173 0
-489 188 0
-490 176 0
-490 181 0
-491 176 0
-491 181 0
-3 486 487 488 489 490 491 0
-492 172 0
-492 188 0
-493 172 0
-493 188 0
-494 174 0
-494 191 0
-495 174 0
-495 191 0
-4 492 493 494 495 0
-496 173 0
-496 191 0
-497 173 0
-497 191 0
-5 496 497 0
-498 171 0
-498 181 0
-499 171 0
-499 181 0
-500 176 0
-500 182 0
-501 176 0
-501 182 0
-502 177 0
-502 180 0
-503 177 0
-503 180 0
-6 498 499 500 501 502 503 0
-504 175 0
-504 180 0
-505 175 0
-505 180 0
-506 178 0
-506 185 0
-507 178 0
-507 185 0
-7 504 505 506 507 0
-508 177 0
-508 185 0
-509 177 0
-509 185 0
-8 508 509 0
-9 0
-510 184 0
-510 191 0
-511 184 0
-511 191 0
-512 185 0
-512 189 0
-513 185 0
-513 189 0
-10 510 511 512 513 0
-514 183 0
-514 191 0
-515 183 0
-515 191 0
-516 185 0
-516 190 0
-517 185 0
-517 190 0
-518 186 0
-518 187 0
-519 186 0
-519 187 0
-11 514 515 516 517 518 519 0
-520 184 0
-520 187 0
-521 184 0
-521 187 0
-12 520 521 0
-522 184 0
-522 185 0
-523 184 0
-523 185 0
-524 189 0
-524 191 0
-525 189 0
-525 191 0
-13 522 523 524 525 0
-526 193 0
-526 209 0
-527 193 0
-527 209 0
-14 526 527 0
-528 192 0
-528 209 0
-529 192 0
-529 209 0
-530 194 0
-530 204 0
-531 194 0
-531 204 0
-532 197 0
-532 203 0
-533 197 0
-533 203 0
-15 528 529 530 531 532 533 0
-534 193 0
-534 204 0
-535 193 0
-535 204 0
-536 195 0
-536 210 0
-537 195 0
-537 210 0
-538 198 0
-538 203 0
-539 198 0
-539 203 0
-16 534 535 536 537 538 539 0
-540 194 0
-540 210 0
-541 194 0
-541 210 0
-542 196 0
-542 213 0
-543 196 0
-543 213 0
-17 540 541 542 543 0
-544 195 0
-544 213 0
-545 195 0
-545 213 0
-18 544 545 0
-546 193 0
-546 203 0
-547 193 0
-547 203 0
-548 198 0
-548 204 0
-549 198 0
-549 204 0
-550 199 0
-550 202 0
-551 199 0
-551 202 0
-19 546 547 548 549 550 551 0
-552 197 0
-552 202 0
-553 197 0
-553 202 0
-554 200 0
-554 207 0
-555 200 0
-555 207 0
-20 552 553 554 555 0
-556 199 0
-556 207 0
-557 199 0
-557 207 0
-21 556 557 0
-22 0
-558 206 0
-558 213 0
-559 206 0
-559 213 0
-560 207 0
-560 211 0
-561 207 0
-561 211 0
-23 558 559 560 561 0
-562 205 0
-562 213 0
-563 205 0
-563 213 0
-564 207 0
-564 212 0
-565 207 0
-565 212 0
-566 208 0
-566 209 0
-567 208 0
-567 209 0
-24 562 563 564 565 566 567 0
-568 206 0
-568 209 0
-569 206 0
-569 209 0
-25 568 569 0
-570 206 0
-570 207 0
-571 206 0
-571 207 0
-572 211 0
-572 213 0
-573 211 0
-573 213 0
-26 570 571 572 573 0
-574 215 0
-574 231 0
-575 215 0
-575 231 0
-27 574 575 0
-576 214 0
-576 231 0
-577 214 0
-577 231 0
-578 216 0
-578 226 0
-579 216 0
-579 226 0
-580 219 0
-580 225 0
-581 219 0
-581 225 0
-28 576 577 578 579 580 581 0
-582 215 0
-582 226 0
-583 215 0
-583 226 0
-584 217 0
-584 232 0
-585 217 0
-585 232 0
-586 220 0
-586 225 0
-587 220 0
-587 225 0
-29 582 583 584 585 586 587 0
-588 216 0
-588 232 0
-589 216 0
-589 232 0
-590 218 0
-590 235 0
-591 218 0
-591 235 0
-30 588 589 590 591 0
-592 217 0
-592 235 0
-593 217 0
-593 235 0
-31 592 593 0
-594 215 0
-594 225 0
-595 215 0
-595 225 0
-596 220 0
-596 226 0
-597 220 0
-597 226 0
-598 221 0
-598 224 0
-599 221 0
-599 224 0
-32 594 595 596 597 598 599 0
-600 219 0
-600 224 0
-601 219 0
-601 224 0
-602 222 0
-602 229 0
-603 222 0
-603 229 0
-33 600 601 602 603 0
-604 221 0
-604 229 0
-605 221 0
-605 229 0
-34 604 605 0
-35 0
-606 228 0
-606 235 0
-607 228 0
-607 235 0
-608 229 0
-608 233 0
-609 229 0
-609 233 0
-36 606 607 608 609 0
-610 227 0
-610 235 0
-611 227 0
-611 235 0
-612 229 0
-612 234 0
-613 229 0
-613 234 0
-614 230 0
-614 231 0
-615 230 0
-615 231 0
-37 610 611 612 613 614 615 0
-616 228 0
-616 231 0
-617 228 0
-617 231 0
-38 616 617 0
-618 228 0
-618 229 0
-619 228 0
-619 229 0
-620 233 0
-620 235 0
-621 233 0
-621 235 0
-39 618 619 620 621 0
-622 237 0
-622 253 0
-623 237 0
-623 253 0
-40 622 623 0
-624 236 0
-624 253 0
-625 236 0
-625 253 0
-626 238 0
-626 248 0
-627 238 0
-627 248 0
-628 241 0
-628 247 0
-629 241 0
-629 247 0
-41 624 625 626 627 628 629 0
-630 237 0
-630 248 0
-631 237 0
-631 248 0
-632 239 0
-632 254 0
-633 239 0
-633 254 0
-634 242 0
-634 247 0
-635 242 0
-635 247 0
-42 630 631 632 633 634 635 0
-636 238 0
-636 254 0
-637 238 0
-637 254 0
-638 240 0
-638 257 0
-639 240 0
-639 257 0
-43 636 637 638 639 0
-640 239 0
-640 257 0
-641 239 0
-641 257 0
-44 640 641 0
-642 237 0
-642 247 0
-643 237 0
-643 247 0
-644 242 0
-644 248 0
-645 242 0
-645 248 0
-646 243 0
-646 246 0
-647 243 0
-647 246 0
-45 642 643 644 645 646 647 0
-648 241 0
-648 246 0
-649 241 0
-649 246 0
-650 244 0
-650 251 0
-651 244 0
-651 251 0
-46 648 649 650 651 0
-652 243 0
-652 251 0
-653 243 0
-653 251 0
-47 652 653 0
-48 0
-654 250 0
-654 257 0
-655 250 0
-655 257 0
-656 251 0
-656 255 0
-657 251 0
-657 255 0
-49 654 655 656 657 0
-658 249 0
-658 257 0
-659 249 0
-659 257 0
-660 251 0
-660 256 0
-661 251 0
-661 256 0
-662 252 0
-662 253 0
-663 252 0
-663 253 0
-50 658 659 660 661 662 663 0
-664 250 0
-664 253 0
-665 250 0
-665 253 0
-51 664 665 0
-666 250 0
-666 251 0
-667 250 0
-667 251 0
-668 255 0
-668 257 0
-669 255 0
-669 257 0
-52 666 667 668 669 0
-670 259 0
-670 275 0
-671 259 0
-671 275 0
-53 670 671 0
-672 258 0
-672 275 0
-673 258 0
-673 275 0
-674 260 0
-674 270 0
-675 260 0
-675 270 0
-676 263 0
-676 269 0
-677 263 0
-677 269 0
-54 672 673 674 675 676 677 0
-678 259 0
-678 270 0
-679 259 0
-679 270 0
-680 261 0
-680 276 0
-681 261 0
-681 276 0
-682 264 0
-682 269 0
-683 264 0
-683 269 0
-55 678 679 680 681 682 683 0
-684 260 0
-684 276 0
-685 260 0
-685 276 0
-686 262 0
-686 279 0
-687 262 0
-687 279 0
-56 684 685 686 687 0
-688 261 0
-688 279 0
-689 261 0
-689 279 0
-57 688 689 0
-690 259 0
-690 269 0
-691 259 0
-691 269 0
-692 264 0
-692 270 0
-693 264 0
-693 270 0
-694 265 0
-694 268 0
-695 265 0
-695 268 0
-58 690 691 692 693 694 695 0
-696 263 0
-696 268 0
-697 263 0
-697 268 0
-698 266 0
-698 273 0
-699 266 0
-699 273 0
-59 696 697 698 699 0
-700 265 0
-700 273 0
-701 265 0
-701 273 0
-60 700 701 0
-61 0
-702 272 0
-702 279 0
-703 272 0
-703 279 0
-704 273 0
-704 277 0
-705 273 0
-705 277 0
-62 702 703 704 705 0
-706 271 0
-706 279 0
-707 271 0
-707 279 0
-708 273 0
-708 278 0
-709 273 0
-709 278 0
-710 274 0
-710 275 0
-711 274 0
-711 275 0
-63 706 707 708 709 710 711 0
-712 272 0
-712 275 0
-713 272 0
-713 275 0
-64 712 713 0
-714 272 0
-714 273 0
-715 272 0
-715 273 0
-716 277 0
-716 279 0
-717 277 0
-717 279 0
-65 714 715 716 717 0
-718 281 0
-718 297 0
-719 281 0
-719 297 0
-66 718 719 0
-720 280 0
-720 297 0
-721 280 0
-721 297 0
-722 282 0
-722 292 0
-723 282 0
-723 292 0
-724 285 0
-724 291 0
-725 285 0
-725 291 0
-67 720 721 722 723 724 725 0
-726 281 0
-726 292 0
-727 281 0
-727 292 0
-728 283 0
-728 298 0
-729 283 0
-729 298 0
-730 286 0
-730 291 0
-731 286 0
-731 291 0
-68 726 727 728 729 730 731 0
-732 282 0
-732 298 0
-733 282 0
-733 298 0
-734 284 0
-734 301 0
-735 284 0
-735 301 0
-69 732 733 734 735 0
-736 283 0
-736 301 0
-737 283 0
-737 301 0
-70 736 737 0
-738 281 0
-738 291 0
-739 281 0
-739 291 0
-740 286 0
-740 292 0
-741 286 0
-741 292 0
-742 287 0
-742 290 0
-743 287 0
-743 290 0
-71 738 739 740 741 742 743 0
-744 285 0
-744 290 0
-745 285 0
-745 290 0
-746 288 0
-746 295 0
-747 288 0
-747 295 0
-72 744 745 746 747 0
-748 287 0
-748 295 0
-749 287 0
-749 295 0
-73 748 749 0
-74 0
-750 294 0
-750 301 0
-751 294 0
-751 301 0
-752 295 0
-752 299 0
-753 295 0
-753 299 0
-75 750 751 752 753 0
-754 293 0
-754 301 0
-755 293 0
-755 301 0
-756 295 0
-756 300 0
-757 295 0
-757 300 0
-758 296 0
-758 297 0
-759 296 0
-759 297 0
-76 754 755 756 757 758 759 0
-760 294 0
-760 297 0
-761 294 0
-761 297 0
-77 760 761 0
-762 294 0
-762 295 0
-763 294 0
-763 295 0
-764 299 0
-764 301 0
-765 299 0
-765 301 0
-78 762 763 764 765 0
-766 303 0
-766 319 0
-767 303 0
-767 319 0
-79 766 767 0
-768 302 0
-768 319 0
-769 302 0
-769 319 0
-770 304 0
-770 314 0
-771 304 0
-771 314 0
-772 307 0
-772 313 0
-773 307 0
-773 313 0
-80 768 769 770 771 772 773 0
-774 303 0
-774 314 0
-775 303 0
-775 314 0
-776 305 0
-776 320 0
-777 305 0
-777 320 0
-778 308 0
-778 313 0
-779 308 0
-779 313 0
-81 774 775 776 777 778 779 0
-780 304 0
-780 320 0
-781 304 0
-781 320 0
-782 306 0
-782 323 0
-783 306 0
-783 323 0
-82 780 781 782 783 0
-784 305 0
-784 323 0
-785 305 0
-785 323 0
-83 784 785 0
-786 303 0
-786 313 0
-787 303 0
-787 313 0
-788 308 0
-788 314 0
-789 308 0
-789 314 0
-790 309 0
-790 312 0
-791 309 0
-791 312 0
-84 786 787 788 789 790 791 0
-792 307 0
-792 312 0
-793 307 0
-793 312 0
-794 310 0
-794 317 0
-795 310 0
-795 317 0
-85 792 793 794 795 0
-796 309 0
-796 317 0
-797 309 0
-797 317 0
-86 796 797 0
-87 0
-798 316 0
-798 323 0
-799 316 0
-799 323 0
-800 317 0
-800 321 0
-801 317 0
-801 321 0
-88 798 799 800 801 0
-802 315 0
-802 323 0
-803 315 0
-803 323 0
-804 317 0
-804 322 0
-805 317 0
-805 322 0
-806 318 0
-806 319 0
-807 318 0
-807 319 0
-89 802 803 804 805 806 807 0
-808 316 0
-808 319 0
-809 316 0
-809 319 0
-90 808 809 0
-810 316 0
-810 317 0
-811 316 0
-811 317 0
-812 321 0
-812 323 0
-813 321 0
-813 323 0
-91 810 811 812 813 0
-814 325 0
-814 341 0
-815 325 0
-815 341 0
-92 814 815 0
-816 324 0
-816 341 0
-817 324 0
-817 341 0
-818 326 0
-818 336 0
-819 326 0
-819 336 0
-820 329 0
-820 335 0
-821 329 0
-821 335 0
-93 816 817 818 819 820 821 0
-822 325 0
-822 336 0
-823 325 0
-823 336 0
-824 327 0
-824 342 0
-825 327 0
-825 342 0
-826 330 0
-826 335 0
-827 330 0
-827 335 0
-94 822 823 824 825 826 827 0
-828 326 0
-828 342 0
-829 326 0
-829 342 0
-830 328 0
-830 345 0
-831 328 0
-831 345 0
-95 828 829 830 831 0
-832 327 0
-832 345 0
-833 327 0
-833 345 0
-96 832 833 0
-834 325 0
-834 335 0
-835 325 0
-835 335 0
-836 330 0
-836 336 0
-837 330 0
-837 336 0
-838 331 0
-838 334 0
-839 331 0
-839 334 0
-97 834 835 836 837 838 839 0
-840 329 0
-840 334 0
-841 329 0
-841 334 0
-842 332 0
-842 339 0
-843 332 0
-843 339 0
-98 840 841 842 843 0
-844 331 0
-844 339 0
-845 331 0
-845 339 0
-99 844 845 0
-100 0
-846 338 0
-846 345 0
-847 338 0
-847 345 0
-848 339 0
-848 343 0
-849 339 0
-849 343 0
-101 846 847 848 849 0
-850 337 0
-850 345 0
-851 337 0
-851 345 0
-852 339 0
-852 344 0
-853 339 0
-853 344 0
-854 340 0
-854 341 0
-855 340 0
-855 341 0
-102 850 851 852 853 854 855 0
-856 338 0
-856 341 0
-857 338 0
-857 341 0
-103 856 857 0
-858 338 0
-858 339 0
-859 338 0
-859 339 0
-860 343 0
-860 345 0
-861 343 0
-861 345 0
-104 858 859 860 861 0
-862 347 0
-862 363 0
-863 347 0
-863 363 0
-105 862 863 0
-864 346 0
-864 363 0
-865 346 0
-865 363 0
-866 348 0
-866 358 0
-867 348 0
-867 358 0
-868 351 0
-868 357 0
-869 351 0
-869 357 0
-106 864 865 866 867 868 869 0
-870 347 0
-870 358 0
-871 347 0
-871 358 0
-872 349 0
-872 364 0
-873 349 0
-873 364 0
-874 352 0
-874 357 0
-875 352 0
-875 357 0
-107 870 871 872 873 874 875 0
-876 348 0
-876 364 0
-877 348 0
-877 364 0
-878 350 0
-878 367 0
-879 350 0
-879 367 0
-108 876 877 878 879 0
-880 349 0
-880 367 0
-881 349 0
-881 367 0
-109 880 881 0
-882 347 0
-882 357 0
-883 347 0
-883 357 0
-884 352 0
-884 358 0
-885 352 0
-885 358 0
-886 353 0
-886 356 0
-887 353 0
-887 356 0
-110 882 883 884 885 886 887 0
-888 351 0
-888 356 0
-889 351 0
-889 356 0
-890 354 0
-890 361 0
-891 354 0
-891 361 0
-111 888 889 890 891 0
-892 353 0
-892 361 0
-893 353 0
-893 361 0
-112 892 893 0
-113 0
-894 360 0
-894 367 0
-895 360 0
-895 367 0
-896 361 0
-896 365 0
-897 361 0
-897 365 0
-114 894 895 896 897 0
-898 359 0
-898 367 0
-899 359 0
-899 367 0
-900 361 0
-900 366 0
-901 361 0
-901 366 0
-902 362 0
-902 363 0
-903 362 0
-903 363 0
-115 898 899 900 901 902 903 0
-904 360 0
-904 363 0
-905 360 0
-905 363 0
-116 904 905 0
-906 360 0
-906 361 0
-907 360 0
-907 361 0
-908 365 0
-908 367 0
-909 365 0
-909 367 0
-117 906 907 908 909 0
-910 369 0
-910 385 0
-911 369 0
-911 385 0
-118 910 911 0
-912 368 0
-912 385 0
-913 368 0
-913 385 0
-914 370 0
-914 380 0
-915 370 0
-915 380 0
-916 373 0
-916 379 0
-917 373 0
-917 379 0
-119 912 913 914 915 916 917 0
-918 369 0
-918 380 0
-919 369 0
-919 380 0
-920 371 0
-920 386 0
-921 371 0
-921 386 0
-922 374 0
-922 379 0
-923 374 0
-923 379 0
-120 918 919 920 921 922 923 0
-924 370 0
-924 386 0
-925 370 0
-925 386 0
-926 372 0
-926 389 0
-927 372 0
-927 389 0
-121 924 925 926 927 0
-928 371 0
-928 389 0
-929 371 0
-929 389 0
-122 928 929 0
-930 369 0
-930 379 0
-931 369 0
-931 379 0
-932 374 0
-932 380 0
-933 374 0
-933 380 0
-934 375 0
-934 378 0
-935 375 0
-935 378 0
-123 930 931 932 933 934 935 0
-936 373 0
-936 378 0
-937 373 0
-937 378 0
-938 376 0
-938 383 0
-939 376 0
-939 383 0
-124 936 937 938 939 0
-940 375 0
-940 383 0
-941 375 0
-941 383 0
-125 940 941 0
-126 0
-942 382 0
-942 389 0
-943 382 0
-943 389 0
-944 383 0
-944 387 0
-945 383 0
-945 387 0
-127 942 943 944 945 0
-946 381 0
-946 389 0
-947 381 0
-947 389 0
-948 383 0
-948 388 0
-949 383 0
-949 388 0
-950 384 0
-950 385 0
-951 384 0
-951 385 0
-128 946 947 948 949 950 951 0
-952 382 0
-952 385 0
-953 382 0
-953 385 0
-129 952 953 0
-954 382 0
-954 383 0
-955 382 0
-955 383 0
-956 387 0
-956 389 0
-957 387 0
-957 389 0
-130 954 955 956 957 0
-958 391 0
-958 407 0
-959 391 0
-959 407 0
-131 958 959 0
-960 390 0
-960 407 0
-961 390 0
-961 407 0
-962 392 0
-962 402 0
-963 392 0
-963 402 0
-964 395 0
-964 401 0
-965 395 0
-965 401 0
-132 960 961 962 963 964 965 0
-966 391 0
-966 402 0
-967 391 0
-967 402 0
-968 393 0
-968 408 0
-969 393 0
-969 408 0
-970 396 0
-970 401 0
-971 396 0
-971 401 0
-133 966 967 968 969 970 971 0
-972 392 0
-972 408 0
-973 392 0
-973 408 0
-974 394 0
-974 411 0
-975 394 0
-975 411 0
-134 972 973 974 975 0
-976 393 0
-976 411 0
-977 393 0
-977 411 0
-135 976 977 0
-978 391 0
-978 401 0
-979 391 0
-979 401 0
-980 396 0
-980 402 0
-981 396 0
-981 402 0
-982 397 0
-982 400 0
-983 397 0
-983 400 0
-136 978 979 980 981 982 983 0
-984 395 0
-984 400 0
-985 395 0
-985 400 0
-986 398 0
-986 405 0
-987 398 0
-987 405 0
-137 984 985 986 987 0
-988 397 0
-988 405 0
-989 397 0
-989 405 0
-138 988 989 0
-139 0
-990 404 0
-990 411 0
-991 404 0
-991 411 0
-992 405 0
-992 409 0
-993 405 0
-993 409 0
-140 990 991 992 993 0
-994 403 0
-994 411 0
-995 403 0
-995 411 0
-996 405 0
-996 410 0
-997 405 0
-997 410 0
-998 406 0
-998 407 0
-999 406 0
-999 407 0
-141 994 995 996 997 998 999 0
-1000 404 0
-1000 407 0
-1001 404 0
-1001 407 0
-142 1000 1001 0
-1002 404 0
-1002 405 0
-1003 404 0
-1003 405 0
-1004 409 0
-1004 411 0
-1005 409 0
-1005 411 0
-143 1002 1003 1004 1005 0
-1006 413 0
-1006 429 0
-1007 413 0
-1007 429 0
-144 1006 1007 0
-1008 412 0
-1008 429 0
-1009 412 0
-1009 429 0
-1010 414 0
-1010 424 0
-1011 414 0
-1011 424 0
-1012 417 0
-1012 423 0
-1013 417 0
-1013 423 0
-145 1008 1009 1010 1011 1012 1013 0
-1014 413 0
-1014 424 0
-1015 413 0
-1015 424 0
-1016 415 0
-1016 430 0
-1017 415 0
-1017 430 0
-1018 418 0
-1018 423 0
-1019 418 0
-1019 423 0
-146 1014 1015 1016 1017 1018 1019 0
-1020 414 0
-1020 430 0
-1021 414 0
-1021 430 0
-1022 416 0
-1022 433 0
-1023 416 0
-1023 433 0
-147 1020 1021 1022 1023 0
-1024 415 0
-1024 433 0
-1025 415 0
-1025 433 0
-148 1024 1025 0
-1026 413 0
-1026 423 0
-1027 413 0
-1027 423 0
-1028 418 0
-1028 424 0
-1029 418 0
-1029 424 0
-1030 419 0
-1030 422 0
-1031 419 0
-1031 422 0
-149 1026 1027 1028 1029 1030 1031 0
-1032 417 0
-1032 422 0
-1033 417 0
-1033 422 0
-1034 420 0
-1034 427 0
-1035 420 0
-1035 427 0
-150 1032 1033 1034 1035 0
-1036 419 0
-1036 427 0
-1037 419 0
-1037 427 0
-151 1036 1037 0
-152 0
-1038 426 0
-1038 433 0
-1039 426 0
-1039 433 0
-1040 427 0
-1040 431 0
-1041 427 0
-1041 431 0
-153 1038 1039 1040 1041 0
-1042 425 0
-1042 433 0
-1043 425 0
-1043 433 0
-1044 427 0
-1044 432 0
-1045 427 0
-1045 432 0
-1046 428 0
-1046 429 0
-1047 428 0
-1047 429 0
-154 1042 1043 1044 1045 1046 1047 0
-1048 426 0
-1048 429 0
-1049 426 0
-1049 429 0
-155 1048 1049 0
-1050 426 0
-1050 427 0
-1051 426 0
-1051 427 0
-1052 431 0
-1052 433 0
-1053 431 0
-1053 433 0
-156 1050 1051 1052 1053 0
-1054 435 0
-1054 451 0
-1055 435 0
-1055 451 0
-157 1054 1055 0
-1056 434 0
-1056 451 0
-1057 434 0
-1057 451 0
-1058 436 0
-1058 446 0
-1059 436 0
-1059 446 0
-1060 439 0
-1060 445 0
-1061 439 0
-1061 445 0
-158 1056 1057 1058 1059 1060 1061 0
-1062 435 0
-1062 446 0
-1063 435 0
-1063 446 0
-1064 437 0
-1064 452 0
-1065 437 0
-1065 452 0
-1066 440 0
-1066 445 0
-1067 440 0
-1067 445 0
-159 1062 1063 1064 1065 1066 1067 0
-1068 436 0
-1068 452 0
-1069 436 0
-1069 452 0
-1070 438 0
-1070 455 0
-1071 438 0
-1071 455 0
-160 1068 1069 1070 1071 0
-1072 437 0
-1072 455 0
-1073 437 0
-1073 455 0
-161 1072 1073 0
-1074 435 0
-1074 445 0
-1075 435 0
-1075 445 0
-1076 440 0
-1076 446 0
-1077 440 0
-1077 446 0
-1078 441 0
-1078 444 0
-1079 441 0
-1079 444 0
-162 1074 1075 1076 1077 1078 1079 0
-1080 439 0
-1080 444 0
-1081 439 0
-1081 444 0
-1082 442 0
-1082 449 0
-1083 442 0
-1083 449 0
-163 1080 1081 1082 1083 0
-1084 441 0
-1084 449 0
-1085 441 0
-1085 449 0
-164 1084 1085 0
-165 0
-1086 448 0
-1086 455 0
-1087 448 0
-1087 455 0
-1088 449 0
-1088 453 0
-1089 449 0
-1089 453 0
-166 1086 1087 1088 1089 0
-1090 447 0
-1090 455 0
-1091 447 0
-1091 455 0
-1092 449 0
-1092 454 0
-1093 449 0
-1093 454 0
-1094 450 0
-1094 451 0
-1095 450 0
-1095 451 0
-167 1090 1091 1092 1093 1094 1095 0
-1096 448 0
-1096 451 0
-1097 448 0
-1097 451 0
-168 1096 1097 0
-1098 448 0
-1098 449 0
-1099 448 0
-1099 449 0
-1100 453 0
-1100 455 0
-1101 453 0
-1101 455 0
-169 1098 1099 1100 1101 0
