p cnf 1325 3397
-1 -2 0
-1 -3 0
-1 -4 0
-1 -5 0
-1 -6 0
-1 -7 0
-1 -8 0
-1 -9 0
-1 -10 0
-1 -11 0
-1 -12 0
-1 -13 0
-1 -14 0
-2 -3 0
-2 -4 0
-2 -5 0
-2 -6 0
-2 -7 0
-2 -8 0
-2 -9 0
-2 -10 0
-2 -11 0
-2 -12 0
-2 -13 0
-2 -14 0
-3 -4 0
-3 -5 0
-3 -6 0
-3 -7 0
-3 -8 0
-3 -9 0
-3 -10 0
-3 -11 0
-3 -12 0
-3 -13 0
-3 -14 0
-4 -5 0
-4 -6 0
-4 -7 0
-4 -8 0
-4 -9 0
-4 -10 0
-4 -11 0
-4 -12 0
-4 -13 0
-4 -14 0
-5 -6 0
-5 -7 0
-5 -8 0
-5 -9 0
-5 -10 0
-5 -11 0
-5 -12 0
-5 -13 0
-5 -14 0
-6 -7 0
-6 -8 0
-6 -9 0
-6 -10 0
-6 -11 0
-6 -12 0
-6 -13 0
-6 -14 0
-7 -8 0
-7 -9 0
-7 -10 0
-7 -11 0
-7 -12 0
-7 -13 0
-7 -14 0
-8 -9 0
-8 -10 0
-8 -11 0
-8 -12 0
-8 -13 0
-8 -14 0
-9 -10 0
-9 -11 0
-9 -12 0
-9 -13 0
-9 -14 0
-10 -11 0
-10 -12 0
-10 -13 0
-10 -14 0
-11 -12 0
-11 -13 0
-11 -14 0
-12 -13 0
-12 -14 0
-13 -14 0
-220 197 1 0
-221 198 2 0
-222 199 3 0
-223 200 0
-224 201 4 0
-225 202 5 0
-226 203 6 0
-227 204 0
-228 205 0
-229 206 7 0
-230 207 8 0
-231 208 0
-232 209 9 0
-233 210 0
-234 211 10 0
-235 212 11 0
-236 213 12 0
-237 214 0
-238 215 13 0
-239 216 0
-240 217 14 0
-241 218 0
-242 219 0
-15 -16 0
-15 -17 0
-15 -18 0
-15 -19 0
-15 -20 0
-15 -21 0
-15 -22 0
-15 -23 0
-15 -24 0
-15 -25 0
-15 -26 0
-15 -27 0
-15 -28 0
-16 -17 0
-16 -18 0
-16 -19 0
-16 -20 0
-16 -21 0
-16 -22 0
-16 -23 0
-16 -24 0
-16 -25 0
-16 -26 0
-16 -27 0
-16 -28 0
-17 -18 0
-17 -19 0
-17 -20 0
-17 -21 0
-17 -22 0
-17 -23 0
-17 -24 0
-17 -25 0
-17 -26 0
-17 -27 0
-17 -28 0
-18 -19 0
-18 -20 0
-18 -21 0
-18 -22 0
-18 -23 0
-18 -24 0
-18 -25 0
-18 -26 0
-18 -27 0
-18 -28 0
-19 -20 0
-19 -21 0
-19 -22 0
-19 -23 0
-19 -24 0
-19 -25 0
-19 -26 0
-19 -27 0
-19 -28 0
-20 -21 0
-20 -22 0
-20 -23 0
-20 -24 0
-20 -25 0
-20 -26 0
-20 -27 0
-20 -28 0
-21 -22 0
-21 -23 0
-21 -24 0
-21 -25 0
-21 -26 0
-21 -27 0
-21 -28 0
-22 -23 0
-22 -24 0
-22 -25 0
-22 -26 0
-22 -27 0
-22 -28 0
-23 -24 0
-23 -25 0
-23 -26 0
-23 -27 0
-23 -28 0
-24 -25 0
-24 -26 0
-24 -27 0
-24 -28 0
-25 -26 0
-25 -27 0
-25 -28 0
-26 -27 0
-26 -28 0
-27 -28 0
-243 220 15 0
-244 221 16 0
-245 222 17 0
-246 223 0
-247 224 18 0
-248 225 19 0
-249 226 20 0
-250 227 0
-251 228 0
-252 229 21 0
-253 230 22 0
-254 231 0
-255 232 23 0
-256 233 0
-257 234 24 0
-258 235 25 0
-259 236 26 0
-260 237 0
-261 238 27 0
-262 239 0
-263 240 28 0
-264 241 0
-265 242 0
-29 -30 0
-29 -31 0
-29 -32 0
-29 -33 0
-29 -34 0
-29 -35 0
-29 -36 0
-29 -37 0
-29 -38 0
-29 -39 0
-29 -40 0
-29 -41 0
-29 -42 0
-30 -31 0
-30 -32 0
-30 -33 0
-30 -34 0
-30 -35 0
-30 -36 0
-30 -37 0
-30 -38 0
-30 -39 0
-30 -40 0
-30 -41 0
-30 -42 0
-31 -32 0
-31 -33 0
-31 -34 0
-31 -35 0
-31 -36 0
-31 -37 0
-31 -38 0
-31 -39 0
-31 -40 0
-31 -41 0
-31 -42 0
-32 -33 0
-32 -34 0
-32 -35 0
-32 -36 0
-32 -37 0
-32 -38 0
-32 -39 0
-32 -40 0
-32 -41 0
-32 -42 0
-33 -34 0
-33 -35 0
-33 -36 0
-33 -37 0
-33 -38 0
-33 -39 0
-33 -40 0
-33 -41 0
-33 -42 0
-34 -35 0
-34 -36 0
-34 -37 0
-34 -38 0
-34 -39 0
-34 -40 0
-34 -41 0
-34 -42 0
-35 -36 0
-35 -37 0
-35 -38 0
-35 -39 0
-35 -40 0
-35 -41 0
-35 -42 0
-36 -37 0
-36 -38 0
-36 -39 0
-36 -40 0
-36 -41 0
-36 -42 0
-37 -38 0
-37 -39 0
-37 -40 0
-37 -41 0
-37 -42 0
-38 -39 0
-38 -40 0
-38 -41 0
-38 -42 0
-39 -40 0
-39 -41 0
-39 -42 0
-40 -41 0
-40 -42 0
-41 -42 0
-266 243 29 0
-267 244 30 0
-268 245 31 0
-269 246 0
-270 247 32 0
-271 248 33 0
-272 249 34 0
-273 250 0
-274 251 0
-275 252 35 0
-276 253 36 0
-277 254 0
-278 255 37 0
-279 256 0
-280 257 38 0
-281 258 39 0
-282 259 40 0
-283 260 0
-284 261 41 0
-285 262 0
-286 263 42 0
-287 264 0
-288 265 0
-43 -44 0
-43 -45 0
-43 -46 0
-43 -47 0
-43 -48 0
-43 -49 0
-43 -50 0
-43 -51 0
-43 -52 0
-43 -53 0
-43 -54 0
-43 -55 0
-43 -56 0
-44 -45 0
-44 -46 0
-44 -47 0
-44 -48 0
-44 -49 0
-44 -50 0
-44 -51 0
-44 -52 0
-44 -53 0
-44 -54 0
-44 -55 0
-44 -56 0
-45 -46 0
-45 -47 0
-45 -48 0
-45 -49 0
-45 -50 0
-45 -51 0
-45 -52 0
-45 -53 0
-45 -54 0
-45 -55 0
-45 -56 0
-46 -47 0
-46 -48 0
-46 -49 0
-46 -50 0
-46 -51 0
-46 -52 0
-46 -53 0
-46 -54 0
-46 -55 0
-46 -56 0
-47 -48 0
-47 -49 0
-47 -50 0
-47 -51 0
-47 -52 0
-47 -53 0
-47 -54 0
-47 -55 0
-47 -56 0
-48 -49 0
-48 -50 0
-48 -51 0
-48 -52 0
-48 -53 0
-48 -54 0
-48 -55 0
-48 -56 0
-49 -50 0
-49 -51 0
-49 -52 0
-49 -53 0
-49 -54 0
-49 -55 0
-49 -56 0
-50 -51 0
-50 -52 0
-50 -53 0
-50 -54 0
-50 -55 0
-50 -56 0
-51 -52 0
-51 -53 0
-51 -54 0
-51 -55 0
-51 -56 0
-52 -53 0
-52 -54 0
-52 -55 0
-52 -56 0
-53 -54 0
-53 -55 0
-53 -56 0
-54 -55 0
-54 -56 0
-55 -56 0
-289 266 43 0
-290 267 44 0
-291 268 45 0
-292 269 0
-293 270 46 0
-294 271 47 0
-295 272 48 0
-296 273 0
-297 274 0
-298 275 49 0
-299 276 50 0
-300 277 0
-301 278 51 0
-302 279 0
-303 280 52 0
-304 281 53 0
-305 282 54 0
-306 283 0
-307 284 55 0
-308 285 0
-309 286 56 0
-310 287 0
-311 288 0
-57 -58 0
-57 -59 0
-57 -60 0
-57 -61 0
-57 -62 0
-57 -63 0
-57 -64 0
-57 -65 0
-57 -66 0
-57 -67 0
-57 -68 0
-57 -69 0
-57 -70 0
-58 -59 0
-58 -60 0
-58 -61 0
-58 -62 0
-58 -63 0
-58 -64 0
-58 -65 0
-58 -66 0
-58 -67 0
-58 -68 0
-58 -69 0
-58 -70 0
-59 -60 0
-59 -61 0
-59 -62 0
-59 -63 0
-59 -64 0
-59 -65 0
-59 -66 0
-59 -67 0
-59 -68 0
-59 -69 0
-59 -70 0
-60 -61 0
-60 -62 0
-60 -63 0
-60 -64 0
-60 -65 0
-60 -66 0
-60 -67 0
-60 -68 0
-60 -69 0
-60 -70 0
-61 -62 0
-61 -63 0
-61 -64 0
-61 -65 0
-61 -66 0
-61 -67 0
-61 -68 0
-61 -69 0
-61 -70 0
-62 -63 0
-62 -64 0
-62 -65 0
-62 -66 0
-62 -67 0
-62 -68 0
-62 -69 0
-62 -70 0
-63 -64 0
-63 -65 0
-63 -66 0
-63 -67 0
-63 -68 0
-63 -69 0
-63 -70 0
-64 -65 0
-64 -66 0
-64 -67 0
-64 -68 0
-64 -69 0
-64 -70 0
-65 -66 0
-65 -67 0
-65 -68 0
-65 -69 0
-65 -70 0
-66 -67 0
-66 -68 0
-66 -69 0
-66 -70 0
-67 -68 0
-67 -69 0
-67 -70 0
-68 -69 0
-68 -70 0
-69 -70 0
-312 289 57 0
-313 290 58 0
-314 291 59 0
-315 292 0
-316 293 60 0
-317 294 61 0
-318 295 62 0
-319 296 0
-320 297 0
-321 298 63 0
-322 299 64 0
-323 300 0
-324 301 65 0
-325 302 0
-326 303 66 0
-327 304 67 0
-328 305 68 0
-329 306 0
-330 307 69 0
-331 308 0
-332 309 70 0
-333 310 0
-334 311 0
-71 -72 0
-71 -73 0
-71 -74 0
-71 -75 0
-71 -76 0
-71 -77 0
-71 -78 0
-71 -79 0
-71 -80 0
-71 -81 0
-71 -82 0
-71 -83 0
-71 -84 0
-72 -73 0
-72 -74 0
-72 -75 0
-72 -76 0
-72 -77 0
-72 -78 0
-72 -79 0
-72 -80 0
-72 -81 0
-72 -82 0
-72 -83 0
-72 -84 0
-73 -74 0
-73 -75 0
-73 -76 0
-73 -77 0
-73 -78 0
-73 -79 0
-73 -80 0
-73 -81 0
-73 -82 0
-73 -83 0
-73 -84 0
-74 -75 0
-74 -76 0
-74 -77 0
-74 -78 0
-74 -79 0
-74 -80 0
-74 -81 0
-74 -82 0
-74 -83 0
-74 -84 0
-75 -76 0
-75 -77 0
-75 -78 0
-75 -79 0
-75 -80 0
-75 -81 0
-75 -82 0
-75 -83 0
-75 -84 0
-76 -77 0
-76 -78 0
-76 -79 0
-76 -80 0
-76 -81 0
-76 -82 0
-76 -83 0
-76 -84 0
-77 -78 0
-77 -79 0
-77 -80 0
-77 -81 0
-77 -82 0
-77 -83 0
-77 -84 0
-78 -79 0
-78 -80 0
-78 -81 0
-78 -82 0
-78 -83 0
-78 -84 0
-79 -80 0
-79 -81 0
-79 -82 0
-79 -83 0
-79 -84 0
-80 -81 0
-80 -82 0
-80 -83 0
-80 -84 0
-81 -82 0
-81 -83 0
-81 -84 0
-82 -83 0
-82 -84 0
-83 -84 0
-335 312 71 0
-336 313 72 0
-337 314 73 0
-338 315 0
-339 316 74 0
-340 317 75 0
-341 318 76 0
-342 319 0
-343 320 0
-344 321 77 0
-345 322 78 0
-346 323 0
-347 324 79 0
-348 325 0
-349 326 80 0
-350 327 81 0
-351 328 82 0
-352 329 0
-353 330 83 0
-354 331 0
-355 332 84 0
-356 333 0
-357 334 0
-85 -86 0
-85 -87 0
-85 -88 0
-85 -89 0
-85 -90 0
-85 -91 0
-85 -92 0
-85 -93 0
-85 -94 0
-85 -95 0
-85 -96 0
-85 -97 0
-85 -98 0
-86 -87 0
-86 -88 0
-86 -89 0
-86 -90 0
-86 -91 0
-86 -92 0
-86 -93 0
-86 -94 0
-86 -95 0
-86 -96 0
-86 -97 0
-86 -98 0
-87 -88 0
-87 -89 0
-87 -90 0
-87 -91 0
-87 -92 0
-87 -93 0
-87 -94 0
-87 -95 0
-87 -96 0
-87 -97 0
-87 -98 0
-88 -89 0
-88 -90 0
-88 -91 0
-88 -92 0
-88 -93 0
-88 -94 0
-88 -95 0
-88 -96 0
-88 -97 0
-88 -98 0
-89 -90 0
-89 -91 0
-89 -92 0
-89 -93 0
-89 -94 0
-89 -95 0
-89 -96 0
-89 -97 0
-89 -98 0
-90 -91 0
-90 -92 0
-90 -93 0
-90 -94 0
-90 -95 0
-90 -96 0
-90 -97 0
-90 -98 0
-91 -92 0
-91 -93 0
-91 -94 0
-91 -95 0
-91 -96 0
-91 -97 0
-91 -98 0
-92 -93 0
-92 -94 0
-92 -95 0
-92 -96 0
-92 -97 0
-92 -98 0
-93 -94 0
-93 -95 0
-93 -96 0
-93 -97 0
-93 -98 0
-94 -95 0
-94 -96 0
-94 -97 0
-94 -98 0
-95 -96 0
-95 -97 0
-95 -98 0
-96 -97 0
-96 -98 0
-97 -98 0
-358 335 85 0
-359 336 86 0
-360 337 87 0
-361 338 0
-362 339 88 0
-363 340 89 0
-364 341 90 0
-365 342 0
-366 343 0
-367 344 91 0
-368 345 92 0
-369 346 0
-370 347 93 0
-371 348 0
-372 349 94 0
-373 350 95 0
-374 351 96 0
-375 352 0
-376 353 97 0
-377 354 0
-378 355 98 0
-379 356 0
-380 357 0
-99 -100 0
-99 -101 0
-99 -102 0
-99 -103 0
-99 -104 0
-99 -105 0
-99 -106 0
-99 -107 0
-99 -108 0
-99 -109 0
-99 -110 0
-99 -111 0
-99 -112 0
-100 -101 0
-100 -102 0
-100 -103 0
-100 -104 0
-100 -105 0
-100 -106 0
-100 -107 0
-100 -108 0
-100 -109 0
-100 -110 0
-100 -111 0
-100 -112 0
-101 -102 0
-101 -103 0
-101 -104 0
-101 -105 0
-101 -106 0
-101 -107 0
-101 -108 0
-101 -109 0
-101 -110 0
-101 -111 0
-101 -112 0
-102 -103 0
-102 -104 0
-102 -105 0
-102 -106 0
-102 -107 0
-102 -108 0
-102 -109 0
-102 -110 0
-102 -111 0
-102 -112 0
-103 -104 0
-103 -105 0
-103 -106 0
-103 -107 0
-103 -108 0
-103 -109 0
-103 -110 0
-103 -111 0
-103 -112 0
-104 -105 0
-104 -106 0
-104 -107 0
-104 -108 0
-104 -109 0
-104 -110 0
-104 -111 0
-104 -112 0
-105 -106 0
-105 -107 0
-105 -108 0
-105 -109 0
-105 -110 0
-105 -111 0
-105 -112 0
-106 -107 0
-106 -108 0
-106 -109 0
-106 -110 0
-106 -111 0
-106 -112 0
-107 -108 0
-107 -109 0
-107 -110 0
-107 -111 0
-107 -112 0
-108 -109 0
-108 -110 0
-108 -111 0
-108 -112 0
-109 -110 0
-109 -111 0
-109 -112 0
-110 -111 0
-110 -112 0
-111 -112 0
-381 358 99 0
-382 359 100 0
-383 360 101 0
-384 361 0
-385 362 102 0
-386 363 103 0
-387 364 104 0
-388 365 0
-389 366 0
-390 367 105 0
-391 368 106 0
-392 369 0
-393 370 107 0
-394 371 0
-395 372 108 0
-396 373 109 0
-397 374 110 0
-398 375 0
-399 376 111 0
-400 377 0
-401 378 112 0
-402 379 0
-403 380 0
-113 -114 0
-113 -115 0
-113 -116 0
-113 -117 0
-113 -118 0
-113 -119 0
-113 -120 0
-113 -121 0
-113 -122 0
-113 -123 0
-113 -124 0
-113 -125 0
-113 -126 0
-114 -115 0
-114 -116 0
-114 -117 0
-114 -118 0
-114 -119 0
-114 -120 0
-114 -121 0
-114 -122 0
-114 -123 0
-114 -124 0
-114 -125 0
-114 -126 0
-115 -116 0
-115 -117 0
-115 -118 0
-115 -119 0
-115 -120 0
-115 -121 0
-115 -122 0
-115 -123 0
-115 -124 0
-115 -125 0
-115 -126 0
-116 -117 0
-116 -118 0
-116 -119 0
-116 -120 0
-116 -121 0
-116 -122 0
-116 -123 0
-116 -124 0
-116 -125 0
-116 -126 0
-117 -118 0
-117 -119 0
-117 -120 0
-117 -121 0
-117 -122 0
-117 -123 0
-117 -124 0
-117 -125 0
-117 -126 0
-118 -119 0
-118 -120 0
-118 -121 0
-118 -122 0
-118 -123 0
-118 -124 0
-118 -125 0
-118 -126 0
-119 -120 0
-119 -121 0
-119 -122 0
-119 -123 0
-119 -124 0
-119 -125 0
-119 -126 0
-120 -121 0
-120 -122 0
-120 -123 0
-120 -124 0
-120 -125 0
-120 -126 0
-121 -122 0
-121 -123 0
-121 -124 0
-121 -125 0
-121 -126 0
-122 -123 0
-122 -124 0
-122 -125 0
-122 -126 0
-123 -124 0
-123 -125 0
-123 -126 0
-124 -125 0
-124 -126 0
-125 -126 0
-404 381 113 0
-405 382 114 0
-406 383 115 0
-407 384 0
-408 385 116 0
-409 386 117 0
-410 387 118 0
-411 388 0
-412 389 0
-413 390 119 0
-414 391 120 0
-415 392 0
-416 393 121 0
-417 394 0
-418 395 122 0
-419 396 123 0
-420 397 124 0
-421 398 0
-422 399 125 0
-423 400 0
-424 401 126 0
-425 402 0
-426 403 0
-127 -128 0
-127 -129 0
-127 -130 0
-127 -131 0
-127 -132 0
-127 -133 0
-127 -134 0
-127 -135 0
-127 -136 0
-127 -137 0
-127 -138 0
-127 -139 0
-127 -140 0
-128 -129 0
-128 -130 0
-128 -131 0
-128 -132 0
-128 -133 0
-128 -134 0
-128 -135 0
-128 -136 0
-128 -137 0
-128 -138 0
-128 -139 0
-128 -140 0
-129 -130 0
-129 -131 0
-129 -132 0
-129 -133 0
-129 -134 0
-129 -135 0
-129 -136 0
-129 -137 0
-129 -138 0
-129 -139 0
-129 -140 0
-130 -131 0
-130 -132 0
-130 -133 0
-130 -134 0
-130 -135 0
-130 -136 0
-130 -137 0
-130 -138 0
-130 -139 0
-130 -140 0
-131 -132 0
-131 -133 0
-131 -134 0
-131 -135 0
-131 -136 0
-131 -137 0
-131 -138 0
-131 -139 0
-131 -140 0
-132 -133 0
-132 -134 0
-132 -135 0
-132 -136 0
-132 -137 0
-132 -138 0
-132 -139 0
-132 -140 0
-133 -134 0
-133 -135 0
-133 -136 0
-133 -137 0
-133 -138 0
-133 -139 0
-133 -140 0
-134 -135 0
-134 -136 0
-134 -137 0
-134 -138 0
-134 -139 0
-134 -140 0
-135 -136 0
-135 -137 0
-135 -138 0
-135 -139 0
-135 -140 0
-136 -137 0
-136 -138 0
-136 -139 0
-136 -140 0
-137 -138 0
-137 -139 0
-137 -140 0
-138 -139 0
-138 -140 0
-139 -140 0
-427 404 127 0
-428 405 128 0
-429 406 129 0
-430 407 0
-431 408 130 0
-432 409 131 0
-433 410 132 0
-434 411 0
-435 412 0
-436 413 133 0
-437 414 134 0
-438 415 0
-439 416 135 0
-440 417 0
-441 418 136 0
-442 419 137 0
-443 420 138 0
-444 421 0
-445 422 139 0
-446 423 0
-447 424 140 0
-448 425 0
-449 426 0
-141 -142 0
-141 -143 0
-141 -144 0
-141 -145 0
-141 -146 0
-141 -147 0
-141 -148 0
-141 -149 0
-141 -150 0
-141 -151 0
-141 -152 0
-141 -153 0
-141 -154 0
-142 -143 0
-142 -144 0
-142 -145 0
-142 -146 0
-142 -147 0
-142 -148 0
-142 -149 0
-142 -150 0
-142 -151 0
-142 -152 0
-142 -153 0
-142 -154 0
-143 -144 0
-143 -145 0
-143 -146 0
-143 -147 0
-143 -148 0
-143 -149 0
-143 -150 0
-143 -151 0
-143 -152 0
-143 -153 0
-143 -154 0
-144 -145 0
-144 -146 0
-144 -147 0
-144 -148 0
-144 -149 0
-144 -150 0
-144 -151 0
-144 -152 0
-144 -153 0
-144 -154 0
-145 -146 0
-145 -147 0
-145 -148 0
-145 -149 0
-145 -150 0
-145 -151 0
-145 -152 0
-145 -153 0
-145 -154 0
-146 -147 0
-146 -148 0
-146 -149 0
-146 -150 0
-146 -151 0
-146 -152 0
-146 -153 0
-146 -154 0
-147 -148 0
-147 -149 0
-147 -150 0
-147 -151 0
-147 -152 0
-147 -153 0
-147 -154 0
-148 -149 0
-148 -150 0
-148 -151 0
-148 -152 0
-148 -153 0
-148 -154 0
-149 -150 0
-149 -151 0
-149 -152 0
-149 -153 0
-149 -154 0
-150 -151 0
-150 -152 0
-150 -153 0
-150 -154 0
-151 -152 0
-151 -153 0
-151 -154 0
-152 -153 0
-152 -154 0
-153 -154 0
-450 427 141 0
-451 428 142 0
-452 429 143 0
-453 430 0
-454 431 144 0
-455 432 145 0
-456 433 146 0
-457 434 0
-458 435 0
-459 436 147 0
-460 437 148 0
-461 438 0
-462 439 149 0
-463 440 0
-464 441 150 0
-465 442 151 0
-466 443 152 0
-467 444 0
-468 445 153 0
-469 446 0
-470 447 154 0
-471 448 0
-472 449 0
-155 -156 0
-155 -157 0
-155 -158 0
-155 -159 0
-155 -160 0
-155 -161 0
-155 -162 0
-155 -163 0
-155 -164 0
-155 -165 0
-155 -166 0
-155 -167 0
-155 -168 0
-156 -157 0
-156 -158 0
-156 -159 0
-156 -160 0
-156 -161 0
-156 -162 0
-156 -163 0
-156 -164 0
-156 -165 0
-156 -166 0
-156 -167 0
-156 -168 0
-157 -158 0
-157 -159 0
-157 -160 0
-157 -161 0
-157 -162 0
-157 -163 0
-157 -164 0
-157 -165 0
-157 -166 0
-157 -167 0
-157 -168 0
-158 -159 0
-158 -160 0
-158 -161 0
-158 -162 0
-158 -163 0
-158 -164 0
-158 -165 0
-158 -166 0
-158 -167 0
-158 -168 0
-159 -160 0
-159 -161 0
-159 -162 0
-159 -163 0
-159 -164 0
-159 -165 0
-159 -166 0
-159 -167 0
-159 -168 0
-160 -161 0
-160 -162 0
-160 -163 0
-160 -164 0
-160 -165 0
-160 -166 0
-160 -167 0
-160 -168 0
-161 -162 0
-161 -163 0
-161 -164 0
-161 -165 0
-161 -166 0
-161 -167 0
-161 -168 0
-162 -163 0
-162 -164 0
-162 -165 0
-162 -166 0
-162 -167 0
-162 -168 0
-163 -164 0
-163 -165 0
-163 -166 0
-163 -167 0
-163 -168 0
-164 -165 0
-164 -166 0
-164 -167 0
-164 -168 0
-165 -166 0
-165 -167 0
-165 -168 0
-166 -167 0
-166 -168 0
-167 -168 0
-473 450 155 0
-474 451 156 0
-475 452 157 0
-476 453 0
-477 454 158 0
-478 455 159 0
-479 456 160 0
-480 457 0
-481 458 0
-482 459 161 0
-483 460 162 0
-484 461 0
-485 462 163 0
-486 463 0
-487 464 164 0
-488 465 165 0
-489 466 166 0
-490 467 0
-491 468 167 0
-492 469 0
-493 470 168 0
-494 471 0
-495 472 0
-169 -170 0
-169 -171 0
-169 -172 0
-169 -173 0
-169 -174 0
-169 -175 0
-169 -176 0
-169 -177 0
-169 -178 0
-169 -179 0
-169 -180 0
-169 -181 0
-169 -182 0
-170 -171 0
-170 -172 0
-170 -173 0
-170 -174 0
-170 -175 0
-170 -176 0
-170 -177 0
-170 -178 0
-170 -179 0
-170 -180 0
-170 -181 0
-170 -182 0
-171 -172 0
-171 -173 0
-171 -174 0
-171 -175 0
-171 -176 0
-171 -177 0
-171 -178 0
-171 -179 0
-171 -180 0
-171 -181 0
-171 -182 0
-172 -173 0
-172 -174 0
-172 -175 0
-172 -176 0
-172 -177 0
-172 -178 0
-172 -179 0
-172 -180 0
-172 -181 0
-172 -182 0
-173 -174 0
-173 -175 0
-173 -176 0
-173 -177 0
-173 -178 0
-173 -179 0
-173 -180 0
-173 -181 0
-173 -182 0
-174 -175 0
-174 -176 0
-174 -177 0
-174 -178 0
-174 -179 0
-174 -180 0
-174 -181 0
-174 -182 0
-175 -176 0
-175 -177 0
-175 -178 0
-175 -179 0
-175 -180 0
-175 -181 0
-175 -182 0
-176 -177 0
-176 -178 0
-176 -179 0
-176 -180 0
-176 -181 0
-176 -182 0
-177 -178 0
-177 -179 0
-177 -180 0
-177 -181 0
-177 -182 0
-178 -179 0
-178 -180 0
-178 -181 0
-178 -182 0
-179 -180 0
-179 -181 0
-179 -182 0
-180 -181 0
-180 -182 0
-181 -182 0
-496 473 169 0
-497 474 170 0
-498 475 171 0
-499 476 0
-500 477 172 0
-501 478 173 0
-502 479 174 0
-503 480 0
-504 481 0
-505 482 175 0
-506 483 176 0
-507 484 0
-508 485 177 0
-509 486 0
-510 487 178 0
-511 488 179 0
-512 489 180 0
-513 490 0
-514 491 181 0
-515 492 0
-516 493 182 0
-517 494 0
-518 495 0
-183 -184 0
-183 -185 0
-183 -186 0
-183 -187 0
-183 -188 0
-183 -189 0
-183 -190 0
-183 -191 0
-183 -192 0
-183 -193 0
-183 -194 0
-183 -195 0
-183 -196 0
-184 -185 0
-184 -186 0
-184 -187 0
-184 -188 0
-184 -189 0
-184 -190 0
-184 -191 0
-184 -192 0
-184 -193 0
-184 -194 0
-184 -195 0
-184 -196 0
-185 -186 0
-185 -187 0
-185 -188 0
-185 -189 0
-185 -190 0
-185 -191 0
-185 -192 0
-185 -193 0
-185 -194 0
-185 -195 0
-185 -196 0
-186 -187 0
-186 -188 0
-186 -189 0
-186 -190 0
-186 -191 0
-186 -192 0
-186 -193 0
-186 -194 0
-186 -195 0
-186 -196 0
-187 -188 0
-187 -189 0
-187 -190 0
-187 -191 0
-187 -192 0
-187 -193 0
-187 -194 0
-187 -195 0
-187 -196 0
-188 -189 0
-188 -190 0
-188 -191 0
-188 -192 0
-188 -193 0
-188 -194 0
-188 -195 0
-188 -196 0
-189 -190 0
-189 -191 0
-189 -192 0
-189 -193 0
-189 -194 0
-189 -195 0
-189 -196 0
-190 -191 0
-190 -192 0
-190 -193 0
-190 -194 0
-190 -195 0
-190 -196 0
-191 -192 0
-191 -193 0
-191 -194 0
-191 -195 0
-191 -196 0
-192 -193 0
-192 -194 0
-192 -195 0
-192 -196 0
-193 -194 0
-193 -195 0
-193 -196 0
-194 -195 0
-194 -196 0
-195 -196 0
-519 496 183 0
-520 497 184 0
-521 498 185 0
-522 499 0
-523 500 186 0
-524 501 187 0
-525 502 188 0
-526 503 0
-527 504 0
-528 505 189 0
-529 506 190 0
-530 507 0
-531 508 191 0
-532 509 0
-533 510 192 0
-534 511 193 0
-535 512 194 0
-536 513 0
-537 514 195 0
-538 515 0
-539 516 196 0
-540 517 0
-541 518 0
-197 0
-198 0
-199 0
200 0
-201 0
-202 0
-203 0
204 0
205 0
-206 0
-207 0
208 0
-209 0
210 0
-211 0
-212 0
-213 0
214 0
-215 0
216 0
-217 0
218 0
219 0
1 15 29 43 57 71 85 99 113 127 141 155 169 183 0
2 16 30 44 58 72 86 100 114 128 142 156 170 184 0
3 17 31 45 59 73 87 101 115 129 143 157 171 185 0
4 18 32 46 60 74 88 102 116 130 144 158 172 186 0
5 19 33 47 61 75 89 103 117 131 145 159 173 187 0
6 20 34 48 62 76 90 104 118 132 146 160 174 188 0
7 21 35 49 63 77 91 105 119 133 147 161 175 189 0
8 22 36 50 64 78 92 106 120 134 148 162 176 190 0
9 23 37 51 65 79 93 107 121 135 149 163 177 191 0
10 24 38 52 66 80 94 108 122 136 150 164 178 192 0
11 25 39 53 67 81 95 109 123 137 151 165 179 193 0
12 26 40 54 68 82 96 110 124 138 152 166 180 194 0
13 27 41 55 69 83 97 111 125 139 153 167 181 195 0
14 28 42 56 70 84 98 112 126 140 154 168 182 196 0
-1 0
-542 199 0
-542 211 0
-543 199 0
-543 211 0
-544 202 0
-544 203 0
-545 202 0
-545 203 0
-2 542 543 544 545 0
-546 198 0
-546 211 0
-547 198 0
-547 211 0
-548 202 0
-548 204 0
-549 202 0
-549 204 0
-3 546 547 548 549 0
-550 200 0
-550 216 0
-551 200 0
-551 216 0
-552 202 0
-552 207 0
-553 202 0
-553 207 0
-4 550 551 552 553 0
-554 198 0
-554 203 0
-555 198 0
-555 203 0
-556 199 0
-556 204 0
-557 199 0
-557 204 0
-558 200 0
-558 205 0
-559 200 0
-559 205 0
-560 201 0
-560 207 0
-561 201 0
-561 207 0
-5 554 555 556 557 558 559 560 561 0
-562 198 0
-562 202 0
-563 198 0
-563 202 0
-564 204 0
-564 211 0
-565 204 0
-565 211 0
-6 562 563 564 565 0
-7 0
-566 201 0
-566 202 0
-567 201 0
-567 202 0
-568 205 0
-568 216 0
-569 205 0
-569 216 0
-8 566 567 568 569 0
-570 210 0
-570 214 0
-571 210 0
-571 214 0
-572 211 0
-572 213 0
-573 211 0
-573 213 0
-9 570 571 572 573 0
-574 198 0
-574 199 0
-575 198 0
-575 199 0
-576 203 0
-576 204 0
-577 203 0
-577 204 0
-578 209 0
-578 213 0
-579 209 0
-579 213 0
-580 210 0
-580 218 0
-581 210 0
-581 218 0
-10 574 575 576 577 578 579 580 581 0
-582 214 0
-582 217 0
-583 214 0
-583 217 0
-584 215 0
-584 216 0
-585 215 0
-585 216 0
-11 582 583 584 585 0
-586 209 0
-586 211 0
-587 209 0
-587 211 0
-588 214 0
-588 218 0
-589 214 0
-589 218 0
-12 586 587 588 589 0
-590 212 0
-590 216 0
-591 212 0
-591 216 0
-592 214 0
-592 219 0
-593 214 0
-593 219 0
-13 590 591 592 593 0
-594 212 0
-594 214 0
-595 212 0
-595 214 0
-596 216 0
-596 219 0
-597 216 0
-597 219 0
-14 594 595 596 597 0
-15 0
-598 222 0
-598 234 0
-599 222 0
-599 234 0
-600 225 0
-600 226 0
-601 225 0
-601 226 0
-16 598 599 600 601 0
-602 221 0
-602 234 0
-603 221 0
-603 234 0
-604 225 0
-604 227 0
-605 225 0
-605 227 0
-17 602 603 604 605 0
-606 223 0
-606 239 0
-607 223 0
-607 239 0
-608 225 0
-608 230 0
-609 225 0
-609 230 0
-18 606 607 608 609 0
-610 221 0
-610 226 0
-611 221 0
-611 226 0
-612 222 0
-612 227 0
-613 222 0
-613 227 0
-614 223 0
-614 228 0
-615 223 0
-615 228 0
-616 224 0
-616 230 0
-617 224 0
-617 230 0
-19 610 611 612 613 614 615 616 617 0
-618 221 0
-618 225 0
-619 221 0
-619 225 0
-620 227 0
-620 234 0
-621 227 0
-621 234 0
-20 618 619 620 621 0
-21 0
-622 224 0
-622 225 0
-623 224 0
-623 225 0
-624 228 0
-624 239 0
-625 228 0
-625 239 0
-22 622 623 624 625 0
-626 233 0
-626 237 0
-627 233 0
-627 237 0
-628 234 0
-628 236 0
-629 234 0
-629 236 0
-23 626 627 628 629 0
-630 221 0
-630 222 0
-631 221 0
-631 222 0
-632 226 0
-632 227 0
-633 226 0
-633 227 0
-634 232 0
-634 236 0
-635 232 0
-635 236 0
-636 233 0
-636 241 0
-637 233 0
-637 241 0
-24 630 631 632 633 634 635 636 637 0
-638 237 0
-638 240 0
-639 237 0
-639 240 0
-640 238 0
-640 239 0
-641 238 0
-641 239 0
-25 638 639 640 641 0
-642 232 0
-642 234 0
-643 232 0
-643 234 0
-644 237 0
-644 241 0
-645 237 0
-645 241 0
-26 642 643 644 645 0
-646 235 0
-646 239 0
-647 235 0
-647 239 0
-648 237 0
-648 242 0
-649 237 0
-649 242 0
-27 646 647 648 649 0
-650 235 0
-650 237 0
-651 235 0
-651 237 0
-652 239 0
-652 242 0
-653 239 0
-653 242 0
-28 650 651 652 653 0
-29 0
-654 245 0
-654 257 0
-655 245 0
-655 257 0
-656 248 0
-656 249 0
-657 248 0
-657 249 0
-30 654 655 656 657 0
-658 244 0
-658 257 0
-659 244 0
-659 257 0
-660 248 0
-660 250 0
-661 248 0
-661 250 0
-31 658 659 660 661 0
-662 246 0
-662 262 0
-663 246 0
-663 262 0
-664 248 0
-664 253 0
-665 248 0
-665 253 0
-32 662 663 664 665 0
-666 244 0
-666 249 0
-667 244 0
-667 249 0
-668 245 0
-668 250 0
-669 245 0
-669 250 0
-670 246 0
-670 251 0
-671 246 0
-671 251 0
-672 247 0
-672 253 0
-673 247 0
-673 253 0
-33 666 667 668 669 670 671 672 673 0
-674 244 0
-674 248 0
-675 244 0
-675 248 0
-676 250 0
-676 257 0
-677 250 0
-677 257 0
-34 674 675 676 677 0
-35 0
-678 247 0
-678 248 0
-679 247 0
-679 248 0
-680 251 0
-680 262 0
-681 251 0
-681 262 0
-36 678 679 680 681 0
-682 256 0
-682 260 0
-683 256 0
-683 260 0
-684 257 0
-684 259 0
-685 257 0
-685 259 0
-37 682 683 684 685 0
-686 244 0
-686 245 0
-687 244 0
-687 245 0
-688 249 0
-688 250 0
-689 249 0
-689 250 0
-690 255 0
-690 259 0
-691 255 0
-691 259 0
-692 256 0
-692 264 0
-693 256 0
-693 264 0
-38 686 687 688 689 690 691 692 693 0
-694 260 0
-694 263 0
-695 260 0
-695 263 0
-696 261 0
-696 262 0
-697 261 0
-697 262 0
-39 694 695 696 697 0
-698 255 0
-698 257 0
-699 255 0
-699 257 0
-700 260 0
-700 264 0
-701 260 0
-701 264 0
-40 698 699 700 701 0
-702 258 0
-702 262 0
-703 258 0
-703 262 0
-704 260 0
-704 265 0
-705 260 0
-705 265 0
-41 702 703 704 705 0
-706 258 0
-706 260 0
-707 258 0
-707 260 0
-708 262 0
-708 265 0
-709 262 0
-709 265 0
-42 706 707 708 709 0
-43 0
-710 268 0
-710 280 0
-711 268 0
-711 280 0
-712 271 0
-712 272 0
-713 271 0
-713 272 0
-44 710 711 712 713 0
-714 267 0
-714 280 0
-715 267 0
-715 280 0
-716 271 0
-716 273 0
-717 271 0
-717 273 0
-45 714 715 716 717 0
-718 269 0
-718 285 0
-719 269 0
-719 285 0
-720 271 0
-720 276 0
-721 271 0
-721 276 0
-46 718 719 720 721 0
-722 267 0
-722 272 0
-723 267 0
-723 272 0
-724 268 0
-724 273 0
-725 268 0
-725 273 0
-726 269 0
-726 274 0
-727 269 0
-727 274 0
-728 270 0
-728 276 0
-729 270 0
-729 276 0
-47 722 723 724 725 726 727 728 729 0
-730 267 0
-730 271 0
-731 267 0
-731 271 0
-732 273 0
-732 280 0
-733 273 0
-733 280 0
-48 730 731 732 733 0
-49 0
-734 270 0
-734 271 0
-735 270 0
-735 271 0
-736 274 0
-736 285 0
-737 274 0
-737 285 0
-50 734 735 736 737 0
-738 279 0
-738 283 0
-739 279 0
-739 283 0
-740 280 0
-740 282 0
-741 280 0
-741 282 0
-51 738 739 740 741 0
-742 267 0
-742 268 0
-743 267 0
-743 268 0
-744 272 0
-744 273 0
-745 272 0
-745 273 0
-746 278 0
-746 282 0
-747 278 0
-747 282 0
-748 279 0
-748 287 0
-749 279 0
-749 287 0
-52 742 743 744 745 746 747 748 749 0
-750 283 0
-750 286 0
-751 283 0
-751 286 0
-752 284 0
-752 285 0
-753 284 0
-753 285 0
-53 750 751 752 753 0
-754 278 0
-754 280 0
-755 278 0
-755 280 0
-756 283 0
-756 287 0
-757 283 0
-757 287 0
-54 754 755 756 757 0
-758 281 0
-758 285 0
-759 281 0
-759 285 0
-760 283 0
-760 288 0
-761 283 0
-761 288 0
-55 758 759 760 761 0
-762 281 0
-762 283 0
-763 281 0
-763 283 0
-764 285 0
-764 288 0
-765 285 0
-765 288 0
-56 762 763 764 765 0
-57 0
-766 291 0
-766 303 0
-767 291 0
-767 303 0
-768 294 0
-768 295 0
-769 294 0
-769 295 0
-58 766 767 768 769 0
-770 290 0
-770 303 0
-771 290 0
-771 303 0
-772 294 0
-772 296 0
-773 294 0
-773 296 0
-59 770 771 772 773 0
-774 292 0
-774 308 0
-775 292 0
-775 308 0
-776 294 0
-776 299 0
-777 294 0
-777 299 0
-60 774 775 776 777 0
-778 290 0
-778 295 0
-779 290 0
-779 295 0
-780 291 0
-780 296 0
-781 291 0
-781 296 0
-782 292 0
-782 297 0
-783 292 0
-783 297 0
-784 293 0
-784 299 0
-785 293 0
-785 299 0
-61 778 779 780 781 782 783 784 785 0
-786 290 0
-786 294 0
-787 290 0
-787 294 0
-788 296 0
-788 303 0
-789 296 0
-789 303 0
-62 786 787 788 789 0
-63 0
-790 293 0
-790 294 0
-791 293 0
-791 294 0
-792 297 0
-792 308 0
-793 297 0
-793 308 0
-64 790 791 792 793 0
-794 302 0
-794 306 0
-795 302 0
-795 306 0
-796 303 0
-796 305 0
-797 303 0
-797 305 0
-65 794 795 796 797 0
-798 290 0
-798 291 0
-799 290 0
-799 291 0
-800 295 0
-800 296 0
-801 295 0
-801 296 0
-802 301 0
-802 305 0
-803 301 0
-803 305 0
-804 302 0
-804 310 0
-805 302 0
-805 310 0
-66 798 799 800 801 802 803 804 805 0
-806 306 0
-806 309 0
-807 306 0
-807 309 0
-808 307 0
-808 308 0
-809 307 0
-809 308 0
-67 806 807 808 809 0
-810 301 0
-810 303 0
-811 301 0
-811 303 0
-812 306 0
-812 310 0
-813 306 0
-813 310 0
-68 810 811 812 813 0
-814 304 0
-814 308 0
-815 304 0
-815 308 0
-816 306 0
-816 311 0
-817 306 0
-817 311 0
-69 814 815 816 817 0
-818 304 0
-818 306 0
-819 304 0
-819 306 0
-820 308 0
-820 311 0
-821 308 0
-821 311 0
-70 818 819 820 821 0
-71 0
-822 314 0
-822 326 0
-823 314 0
-823 326 0
-824 317 0
-824 318 0
-825 317 0
-825 318 0
-72 822 823 824 825 0
-826 313 0
-826 326 0
-827 313 0
-827 326 0
-828 317 0
-828 319 0
-829 317 0
-829 319 0
-73 826 827 828 829 0
-830 315 0
-830 331 0
-831 315 0
-831 331 0
-832 317 0
-832 322 0
-833 317 0
-833 322 0
-74 830 831 832 833 0
-834 313 0
-834 318 0
-835 313 0
-835 318 0
-836 314 0
-836 319 0
-837 314 0
-837 319 0
-838 315 0
-838 320 0
-839 315 0
-839 320 0
-840 316 0
-840 322 0
-841 316 0
-841 322 0
-75 834 835 836 837 838 839 840 841 0
-842 313 0
-842 317 0
-843 313 0
-843 317 0
-844 319 0
-844 326 0
-845 319 0
-845 326 0
-76 842 843 844 845 0
-77 0
-846 316 0
-846 317 0
-847 316 0
-847 317 0
-848 320 0
-848 331 0
-849 320 0
-849 331 0
-78 846 847 848 849 0
-850 325 0
-850 329 0
-851 325 0
-851 329 0
-852 326 0
-852 328 0
-853 326 0
-853 328 0
-79 850 851 852 853 0
-854 313 0
-854 314 0
-855 313 0
-855 314 0
-856 318 0
-856 319 0
-857 318 0
-857 319 0
-858 324 0
-858 328 0
-859 324 0
-859 328 0
-860 325 0
-860 333 0
-861 325 0
-861 333 0
-80 854 855 856 857 858 859 860 861 0
-862 329 0
-862 332 0
-863 329 0
-863 332 0
-864 330 0
-864 331 0
-865 330 0
-865 331 0
-81 862 863 864 865 0
-866 324 0
-866 326 0
-867 324 0
-867 326 0
-868 329 0
-868 333 0
-869 329 0
-869 333 0
-82 866 867 868 869 0
-870 327 0
-870 331 0
-871 327 0
-871 331 0
-872 329 0
-872 334 0
-873 329 0
-873 334 0
-83 870 871 872 873 0
-874 327 0
-874 329 0
-875 327 0
-875 329 0
-876 331 0
-876 334 0
-877 331 0
-877 334 0
-84 874 875 876 877 0
-85 0
-878 337 0
-878 349 0
-879 337 0
-879 349 0
-880 340 0
-880 341 0
-881 340 0
-881 341 0
-86 878 879 880 881 0
-882 336 0
-882 349 0
-883 336 0
-883 349 0
-884 340 0
-884 342 0
-885 340 0
-885 342 0
-87 882 883 884 885 0
-886 338 0
-886 354 0
-887 338 0
-887 354 0
-888 340 0
-888 345 0
-889 340 0
-889 345 0
-88 886 887 888 889 0
-890 336 0
-890 341 0
-891 336 0
-891 341 0
-892 337 0
-892 342 0
-893 337 0
-893 342 0
-894 338 0
-894 343 0
-895 338 0
-895 343 0
-896 339 0
-896 345 0
-897 339 0
-897 345 0
-89 890 891 892 893 894 895 896 897 0
-898 336 0
-898 340 0
-899 336 0
-899 340 0
-900 342 0
-900 349 0
-901 342 0
-901 349 0
-90 898 899 900 901 0
-91 0
-902 339 0
-902 340 0
-903 339 0
-903 340 0
-904 343 0
-904 354 0
-905 343 0
-905 354 0
-92 902 903 904 905 0
-906 348 0
-906 352 0
-907 348 0
-907 352 0
-908 349 0
-908 351 0
-909 349 0
-909 351 0
-93 906 907 908 909 0
-910 336 0
-910 337 0
-911 336 0
-911 337 0
-912 341 0
-912 342 0
-913 341 0
-913 342 0
-914 347 0
-914 351 0
-915 347 0
-915 351 0
-916 348 0
-916 356 0
-917 348 0
-917 356 0
-94 910 911 912 913 914 915 916 917 0
-918 352 0
-918 355 0
-919 352 0
-919 355 0
-920 353 0
-920 354 0
-921 353 0
-921 354 0
-95 918 919 920 921 0
-922 347 0
-922 349 0
-923 347 0
-923 349 0
-924 352 0
-924 356 0
-925 352 0
-925 356 0
-96 922 923 924 925 0
-926 350 0
-926 354 0
-927 350 0
-927 354 0
-928 352 0
-928 357 0
-929 352 0
-929 357 0
-97 926 927 928 929 0
-930 350 0
-930 352 0
-931 350 0
-931 352 0
-932 354 0
-932 357 0
-933 354 0
-933 357 0
-98 930 931 932 933 0
-99 0
-934 360 0
-934 372 0
-935 360 0
-935 372 0
-936 363 0
-936 364 0
-937 363 0
-937 364 0
-100 934 935 936 937 0
-938 359 0
-938 372 0
-939 359 0
-939 372 0
-940 363 0
-940 365 0
-941 363 0
-941 365 0
-101 938 939 940 941 0
-942 361 0
-942 377 0
-943 361 0
-943 377 0
-944 363 0
-944 368 0
-945 363 0
-945 368 0
-102 942 943 944 945 0
-946 359 0
-946 364 0
-947 359 0
-947 364 0
-948 360 0
-948 365 0
-949 360 0
-949 365 0
-950 361 0
-950 366 0
-951 361 0
-951 366 0
-952 362 0
-952 368 0
-953 362 0
-953 368 0
-103 946 947 948 949 950 951 952 953 0
-954 359 0
-954 363 0
-955 359 0
-955 363 0
-956 365 0
-956 372 0
-957 365 0
-957 372 0
-104 954 955 956 957 0
-105 0
-958 362 0
-958 363 0
-959 362 0
-959 363 0
-960 366 0
-960 377 0
-961 366 0
-961 377 0
-106 958 959 960 961 0
-962 371 0
-962 375 0
-963 371 0
-963 375 0
-964 372 0
-964 374 0
-965 372 0
-965 374 0
-107 962 963 964 965 0
-966 359 0
-966 360 0
-967 359 0
-967 360 0
-968 364 0
-968 365 0
-969 364 0
-969 365 0
-970 370 0
-970 374 0
-971 370 0
-971 374 0
-972 371 0
-972 379 0
-973 371 0
-973 379 0
-108 966 967 968 969 970 971 972 973 0
-974 375 0
-974 378 0
-975 375 0
-975 378 0
-976 376 0
-976 377 0
-977 376 0
-977 377 0
-109 974 975 976 977 0
-978 370 0
-978 372 0
-979 370 0
-979 372 0
-980 375 0
-980 379 0
-981 375 0
-981 379 0
-110 978 979 980 981 0
-982 373 0
-982 377 0
-983 373 0
-983 377 0
-984 375 0
-984 380 0
-985 375 0
-985 380 0
-111 982 983 984 985 0
-986 373 0
-986 375 0
-987 373 0
-987 375 0
-988 377 0
-988 380 0
-989 377 0
-989 380 0
-112 986 987 988 989 0
-113 0
-990 383 0
-990 395 0
-991 383 0
-991 395 0
-992 386 0
-992 387 0
-993 386 0
-993 387 0
-114 990 991 992 993 0
-994 382 0
-994 395 0
-995 382 0
-995 395 0
-996 386 0
-996 388 0
-997 386 0
-997 388 0
-115 994 995 996 997 0
-998 384 0
-998 400 0
-999 384 0
-999 400 0
-1000 386 0
-1000 391 0
-1001 386 0
-1001 391 0
-116 998 999 1000 1001 0
-1002 382 0
-1002 387 0
-1003 382 0
-1003 387 0
-1004 383 0
-1004 388 0
-1005 383 0
-1005 388 0
-1006 384 0
-1006 389 0
-1007 384 0
-1007 389 0
-1008 385 0
-1008 391 0
-1009 385 0
-1009 391 0
-117 1002 1003 1004 1005 1006 1007 1008 1009 0
-1010 382 0
-1010 386 0
-1011 382 0
-1011 386 0
-1012 388 0
-1012 395 0
-1013 388 0
-1013 395 0
-118 1010 1011 1012 1013 0
-119 0
-1014 385 0
-1014 386 0
-1015 385 0
-1015 386 0
-1016 389 0
-1016 400 0
-1017 389 0
-1017 400 0
-120 1014 1015 1016 1017 0
-1018 394 0
-1018 398 0
-1019 394 0
-1019 398 0
-1020 395 0
-1020 397 0
-1021 395 0
-1021 397 0
-121 1018 1019 1020 1021 0
-1022 382 0
-1022 383 0
-1023 382 0
-1023 383 0
-1024 387 0
-1024 388 0
-1025 387 0
-1025 388 0
-1026 393 0
-1026 397 0
-1027 393 0
-1027 397 0
-1028 394 0
-1028 402 0
-1029 394 0
-1029 402 0
-122 1022 1023 1024 1025 1026 1027 1028 1029 0
-1030 398 0
-1030 401 0
-1031 398 0
-1031 401 0
-1032 399 0
-1032 400 0
-1033 399 0
-1033 400 0
-123 1030 1031 1032 1033 0
-1034 393 0
-1034 395 0
-1035 393 0
-1035 395 0
-1036 398 0
-1036 402 0
-1037 398 0
-1037 402 0
-124 1034 1035 1036 1037 0
-1038 396 0
-1038 400 0
-1039 396 0
-1039 400 0
-1040 398 0
-1040 403 0
-1041 398 0
-1041 403 0
-125 1038 1039 1040 1041 0
-1042 396 0
-1042 398 0
-1043 396 0
-1043 398 0
-1044 400 0
-1044 403 0
-1045 400 0
-1045 403 0
-126 1042 1043 1044 1045 0
-127 0
-1046 406 0
-1046 418 0
-1047 406 0
-1047 418 0
-1048 409 0
-1048 410 0
-1049 409 0
-1049 410 0
-128 1046 1047 1048 1049 0
-1050 405 0
-1050 418 0
-1051 405 0
-1051 418 0
-1052 409 0
-1052 411 0
-1053 409 0
-1053 411 0
-129 1050 1051 1052 1053 0
-1054 407 0
-1054 423 0
-1055 407 0
-1055 423 0
-1056 409 0
-1056 414 0
-1057 409 0
-1057 414 0
-130 1054 1055 1056 1057 0
-1058 405 0
-1058 410 0
-1059 405 0
-1059 410 0
-1060 406 0
-1060 411 0
-1061 406 0
-1061 411 0
-1062 407 0
-1062 412 0
-1063 407 0
-1063 412 0
-1064 408 0
-1064 414 0
-1065 408 0
-1065 414 0
-131 1058 1059 1060 1061 1062 1063 1064 1065 0
-1066 405 0
-1066 409 0
-1067 405 0
-1067 409 0
-1068 411 0
-1068 418 0
-1069 411 0
-1069 418 0
-132 1066 1067 1068 1069 0
-133 0
-1070 408 0
-1070 409 0
-1071 408 0
-1071 409 0
-1072 412 0
-1072 423 0
-1073 412 0
-1073 423 0
-134 1070 1071 1072 1073 0
-1074 417 0
-1074 421 0
-1075 417 0
-1075 421 0
-1076 418 0
-1076 420 0
-1077 418 0
-1077 420 0
-135 1074 1075 1076 1077 0
-1078 405 0
-1078 406 0
-1079 405 0
-1079 406 0
-1080 410 0
-1080 411 0
-1081 410 0
-1081 411 0
-1082 416 0
-1082 420 0
-1083 416 0
-1083 420 0
-1084 417 0
-1084 425 0
-1085 417 0
-1085 425 0
-136 1078 1079 1080 1081 1082 1083 1084 1085 0
-1086 421 0
-1086 424 0
-1087 421 0
-1087 424 0
-1088 422 0
-1088 423 0
-1089 422 0
-1089 423 0
-137 1086 1087 1088 1089 0
-1090 416 0
-1090 418 0
-1091 416 0
-1091 418 0
-1092 421 0
-1092 425 0
-1093 421 0
-1093 425 0
-138 1090 1091 1092 1093 0
-1094 419 0
-1094 423 0
-1095 419 0
-1095 423 0
-1096 421 0
-1096 426 0
-1097 421 0
-1097 426 0
-139 1094 1095 1096 1097 0
-1098 419 0
-1098 421 0
-1099 419 0
-1099 421 0
-1100 423 0
-1100 426 0
-1101 423 0
-1101 426 0
-140 1098 1099 1100 1101 0
-141 0
-1102 429 0
-1102 441 0
-1103 429 0
-1103 441 0
-1104 432 0
-1104 433 0
-1105 432 0
-1105 433 0
-142 1102 1103 1104 1105 0
-1106 428 0
-1106 441 0
-1107 428 0
-1107 441 0
-1108 432 0
-1108 434 0
-1109 432 0
-1109 434 0
-143 1106 1107 1108 1109 0
-1110 430 0
-1110 446 0
-1111 430 0
-1111 446 0
-1112 432 0
-1112 437 0
-1113 432 0
-1113 437 0
-144 1110 1111 1112 1113 0
-1114 428 0
-1114 433 0
-1115 428 0
-1115 433 0
-1116 429 0
-1116 434 0
-1117 429 0
-1117 434 0
-1118 430 0
-1118 435 0
-1119 430 0
-1119 435 0
-1120 431 0
-1120 437 0
-1121 431 0
-1121 437 0
-145 1114 1115 1116 1117 1118 1119 1120 1121 0
-1122 428 0
-1122 432 0
-1123 428 0
-1123 432 0
-1124 434 0
-1124 441 0
-1125 434 0
-1125 441 0
-146 1122 1123 1124 1125 0
-147 0
-1126 431 0
-1126 432 0
-1127 431 0
-1127 432 0
-1128 435 0
-1128 446 0
-1129 435 0
-1129 446 0
-148 1126 1127 1128 1129 0
-1130 440 0
-1130 444 0
-1131 440 0
-1131 444 0
-1132 441 0
-1132 443 0
-1133 441 0
-1133 443 0
-149 1130 1131 1132 1133 0
-1134 428 0
-1134 429 0
-1135 428 0
-1135 429 0
-1136 433 0
-1136 434 0
-1137 433 0
-1137 434 0
-1138 439 0
-1138 443 0
-1139 439 0
-1139 443 0
-1140 440 0
-1140 448 0
-1141 440 0
-1141 448 0
-150 1134 1135 1136 1137 1138 1139 1140 1141 0
-1142 444 0
-1142 447 0
-1143 444 0
-1143 447 0
-1144 445 0
-1144 446 0
-1145 445 0
-1145 446 0
-151 1142 1143 1144 1145 0
-1146 439 0
-1146 441 0
-1147 439 0
-1147 441 0
-1148 444 0
-1148 448 0
-1149 444 0
-1149 448 0
-152 1146 1147 1148 1149 0
-1150 442 0
-1150 446 0
-1151 442 0
-1151 446 0
-1152 444 0
-1152 449 0
-1153 444 0
-1153 449 0
-153 1150 1151 1152 1153 0
-1154 442 0
-1154 444 0
-1155 442 0
-1155 444 0
-1156 446 0
-1156 449 0
-1157 446 0
-1157 449 0
-154 1154 1155 1156 1157 0
-155 0
-1158 452 0
-1158 464 0
-1159 452 0
-1159 464 0
-1160 455 0
-1160 456 0
-1161 455 0
-1161 456 0
-156 1158 1159 1160 1161 0
-1162 451 0
-1162 464 0
-1163 451 0
-1163 464 0
-1164 455 0
-1164 457 0
-1165 455 0
-1165 457 0
-157 1162 1163 1164 1165 0
-1166 453 0
-1166 469 0
-1167 453 0
-1167 469 0
-1168 455 0
-1168 460 0
-1169 455 0
-1169 460 0
-158 1166 1167 1168 1169 0
-1170 451 0
-1170 456 0
-1171 451 0
-1171 456 0
-1172 452 0
-1172 457 0
-1173 452 0
-1173 457 0
-1174 453 0
-1174 458 0
-1175 453 0
-1175 458 0
-1176 454 0
-1176 460 0
-1177 454 0
-1177 460 0
-159 1170 1171 1172 1173 1174 1175 1176 1177 0
-1178 451 0
-1178 455 0
-1179 451 0
-1179 455 0
-1180 457 0
-1180 464 0
-1181 457 0
-1181 464 0
-160 1178 1179 1180 1181 0
-161 0
-1182 454 0
-1182 455 0
-1183 454 0
-1183 455 0
-1184 458 0
-1184 469 0
-1185 458 0
-1185 469 0
-162 1182 1183 1184 1185 0
-1186 463 0
-1186 467 0
-1187 463 0
-1187 467 0
-1188 464 0
-1188 466 0
-1189 464 0
-1189 466 0
-163 1186 1187 1188 1189 0
-1190 451 0
-1190 452 0
-1191 451 0
-1191 452 0
-1192 456 0
-1192 457 0
-1193 456 0
-1193 457 0
-1194 462 0
-1194 466 0
-1195 462 0
-1195 466 0
-1196 463 0
-1196 471 0
-1197 463 0
-1197 471 0
-164 1190 1191 1192 1193 1194 1195 1196 1197 0
-1198 467 0
-1198 470 0
-1199 467 0
-1199 470 0
-1200 468 0
-1200 469 0
-1201 468 0
-1201 469 0
-165 1198 1199 1200 1201 0
-1202 462 0
-1202 464 0
-1203 462 0
-1203 464 0
-1204 467 0
-1204 471 0
-1205 467 0
-1205 471 0
-166 1202 1203 1204 1205 0
-1206 465 0
-1206 469 0
-1207 465 0
-1207 469 0
-1208 467 0
-1208 472 0
-1209 467 0
-1209 472 0
-167 1206 1207 1208 1209 0
-1210 465 0
-1210 467 0
-1211 465 0
-1211 467 0
-1212 469 0
-1212 472 0
-1213 469 0
-1213 472 0
-168 1210 1211 1212 1213 0
-169 0
-1214 475 0
-1214 487 0
-1215 475 0
-1215 487 0
-1216 478 0
-1216 479 0
-1217 478 0
-1217 479 0
-170 1214 1215 1216 1217 0
-1218 474 0
-1218 487 0
-1219 474 0
-1219 487 0
-1220 478 0
-1220 480 0
-1221 478 0
-1221 480 0
-171 1218 1219 1220 1221 0
-1222 476 0
-1222 492 0
-1223 476 0
-1223 492 0
-1224 478 0
-1224 483 0
-1225 478 0
-1225 483 0
-172 1222 1223 1224 1225 0
-1226 474 0
-1226 479 0
-1227 474 0
-1227 479 0
-1228 475 0
-1228 480 0
-1229 475 0
-1229 480 0
-1230 476 0
-1230 481 0
-1231 476 0
-1231 481 0
-1232 477 0
-1232 483 0
-1233 477 0
-1233 483 0
-173 1226 1227 1228 1229 1230 1231 1232 1233 0
-1234 474 0
-1234 478 0
-1235 474 0
-1235 478 0
-1236 480 0
-1236 487 0
-1237 480 0
-1237 487 0
-174 1234 1235 1236 1237 0
-175 0
-1238 477 0
-1238 478 0
-1239 477 0
-1239 478 0
-1240 481 0
-1240 492 0
-1241 481 0
-1241 492 0
-176 1238 1239 1240 1241 0
-1242 486 0
-1242 490 0
-1243 486 0
-1243 490 0
-1244 487 0
-1244 489 0
-1245 487 0
-1245 489 0
-177 1242 1243 1244 1245 0
-1246 474 0
-1246 475 0
-1247 474 0
-1247 475 0
-1248 479 0
-1248 480 0
-1249 479 0
-1249 480 0
-1250 485 0
-1250 489 0
-1251 485 0
-1251 489 0
-1252 486 0
-1252 494 0
-1253 486 0
-1253 494 0
-178 1246 1247 1248 1249 1250 1251 1252 1253 0
-1254 490 0
-1254 493 0
-1255 490 0
-1255 493 0
-1256 491 0
-1256 492 0
-1257 491 0
-1257 492 0
-179 1254 1255 1256 1257 0
-1258 485 0
-1258 487 0
-1259 485 0
-1259 487 0
-1260 490 0
-1260 494 0
-1261 490 0
-1261 494 0
-180 1258 1259 1260 1261 0
-1262 488 0
-1262 492 0
-1263 488 0
-1263 492 0
-1264 490 0
-1264 495 0
-1265 490 0
-1265 495 0
-181 1262 1263 1264 1265 0
-1266 488 0
-1266 490 0
-1267 488 0
-1267 490 0
-1268 492 0
-1268 495 0
-1269 492 0
-1269 495 0
-182 1266 1267 1268 1269 0
-183 0
-1270 498 0
-1270 510 0
-1271 498 0
-1271 510 0
-1272 501 0
-1272 502 0
-1273 501 0
-1273 502 0
-184 1270 1271 1272 1273 0
-1274 497 0
-1274 510 0
-1275 497 0
-1275 510 0
-1276 501 0
-1276 503 0
-1277 501 0
-1277 503 0
-185 1274 1275 1276 1277 0
-1278 499 0
-1278 515 0
-1279 499 0
-1279 515 0
-1280 501 0
-1280 506 0
-1281 501 0
-1281 506 0
-186 1278 1279 1280 1281 0
-1282 497 0
-1282 502 0
-1283 497 0
-1283 502 0
-1284 498 0
-1284 503 0
-1285 498 0
-1285 503 0
-1286 499 0
-1286 504 0
-1287 499 0
-1287 504 0
-1288 500 0
-1288 506 0
-1289 500 0
-1289 506 0
-187 1282 1283 1284 1285 1286 1287 1288 1289 0
-1290 497 0
-1290 501 0
-1291 497 0
-1291 501 0
-1292 503 0
-1292 510 0
-1293 503 0
-1293 510 0
-188 1290 1291 1292 1293 0
-189 0
-1294 500 0
-1294 501 0
-1295 500 0
-1295 501 0
-1296 504 0
-1296 515 0
-1297 504 0
-1297 515 0
-190 1294 1295 1296 1297 0
-1298 509 0
-1298 513 0
-1299 509 0
-1299 513 0
-1300 510 0
-1300 512 0
-1301 510 0
-1301 512 0
-191 1298 1299 1300 1301 0
-1302 497 0
-1302 498 0
-1303 497 0
-1303 498 0
-1304 502 0
-1304 503 0
-1305 502 0
-1305 503 0
-1306 508 0
-1306 512 0
-1307 508 0
-1307 512 0
-1308 509 0
-1308 517 0
-1309 509 0
-1309 517 0
-192 1302 1303 1304 1305 1306 1307 1308 1309 0
-1310 513 0
-1310 516 0
-1311 513 0
-1311 516 0
-1312 514 0
-1312 515 0
-1313 514 0
-1313 515 0
-193 1310 1311 1312 1313 0
-1314 508 0
-1314 510 0
-1315 508 0
-1315 510 0
-1316 513 0
-1316 517 0
-1317 513 0
-1317 517 0
-194 1314 1315 1316 1317 0
-1318 511 0
-1318 515 0
-1319 511 0
-1319 515 0
-1320 513 0
-1320 518 0
-1321 513 0
-1321 518 0
-195 1318 1319 1320 1321 0
-1322 511 0
-1322 513 0
-1323 511 0
-1323 513 0
-1324 515 0
-1324 518 0
-1325 515 0
-1325 518 0
-196 1322 1323 1324 1325 0
