p cnf 1018 2543
-1 -2 0
-1 -3 0
-1 -4 0
-1 -5 0
-1 -6 0
-1 -7 0
-1 -8 0
-1 -9 0
-1 -10 0
-1 -11 0
-1 -12 0
-1 -13 0
-2 -3 0
-2 -4 0
-2 -5 0
-2 -6 0
-2 -7 0
-2 -8 0
-2 -9 0
-2 -10 0
-2 -11 0
-2 -12 0
-2 -13 0
-3 -4 0
-3 -5 0
-3 -6 0
-3 -7 0
-3 -8 0
-3 -9 0
-3 -10 0
-3 -11 0
-3 -12 0
-3 -13 0
-4 -5 0
-4 -6 0
-4 -7 0
-4 -8 0
-4 -9 0
-4 -10 0
-4 -11 0
-4 -12 0
-4 -13 0
-5 -6 0
-5 -7 0
-5 -8 0
-5 -9 0
-5 -10 0
-5 -11 0
-5 -12 0
-5 -13 0
-6 -7 0
-6 -8 0
-6 -9 0
-6 -10 0
-6 -11 0
-6 -12 0
-6 -13 0
-7 -8 0
-7 -9 0
-7 -10 0
-7 -11 0
-7 -12 0
-7 -13 0
-8 -9 0
-8 -10 0
-8 -11 0
-8 -12 0
-8 -13 0
-9 -10 0
-9 -11 0
-9 -12 0
-9 -13 0
-10 -11 0
-10 -12 0
-10 -13 0
-11 -12 0
-11 -13 0
-12 -13 0
-179 157 1 0
-180 158 2 0
-181 159 3 0
-182 160 4 0
-183 161 5 0
-184 162 6 0
-185 163 0
-186 164 7 0
-187 165 8 0
-188 166 9 0
-189 167 0
-190 168 0
-191 169 0
-192 170 10 0
-193 171 11 0
-194 172 0
-195 173 12 0
-196 174 0
-197 175 0
-198 176 0
-199 177 13 0
-200 178 0
-14 -15 0
-14 -16 0
-14 -17 0
-14 -18 0
-14 -19 0
-14 -20 0
-14 -21 0
-14 -22 0
-14 -23 0
-14 -24 0
-14 -25 0
-14 -26 0
-15 -16 0
-15 -17 0
-15 -18 0
-15 -19 0
-15 -20 0
-15 -21 0
-15 -22 0
-15 -23 0
-15 -24 0
-15 -25 0
-15 -26 0
-16 -17 0
-16 -18 0
-16 -19 0
-16 -20 0
-16 -21 0
-16 -22 0
-16 -23 0
-16 -24 0
-16 -25 0
-16 -26 0
-17 -18 0
-17 -19 0
-17 -20 0
-17 -21 0
-17 -22 0
-17 -23 0
-17 -24 0
-17 -25 0
-17 -26 0
-18 -19 0
-18 -20 0
-18 -21 0
-18 -22 0
-18 -23 0
-18 -24 0
-18 -25 0
-18 -26 0
-19 -20 0
-19 -21 0
-19 -22 0
-19 -23 0
-19 -24 0
-19 -25 0
-19 -26 0
-20 -21 0
-20 -22 0
-20 -23 0
-20 -24 0
-20 -25 0
-20 -26 0
-21 -22 0
-21 -23 0
-21 -24 0
-21 -25 0
-21 -26 0
-22 -23 0
-22 -24 0
-22 -25 0
-22 -26 0
-23 -24 0
-23 -25 0
-23 -26 0
-24 -25 0
-24 -26 0
-25 -26 0
-201 179 14 0
-202 180 15 0
-203 181 16 0
-204 182 17 0
-205 183 18 0
-206 184 19 0
-207 185 0
-208 186 20 0
-209 187 21 0
-210 188 22 0
-211 189 0
-212 190 0
-213 191 0
-214 192 23 0
-215 193 24 0
-216 194 0
-217 195 25 0
-218 196 0
-219 197 0
-220 198 0
-221 199 26 0
-222 200 0
-27 -28 0
-27 -29 0
-27 -30 0
-27 -31 0
-27 -32 0
-27 -33 0
-27 -34 0
-27 -35 0
-27 -36 0
-27 -37 0
-27 -38 0
-27 -39 0
-28 -29 0
-28 -30 0
-28 -31 0
-28 -32 0
-28 -33 0
-28 -34 0
-28 -35 0
-28 -36 0
-28 -37 0
-28 -38 0
-28 -39 0
-29 -30 0
-29 -31 0
-29 -32 0
-29 -33 0
-29 -34 0
-29 -35 0
-29 -36 0
-29 -37 0
-29 -38 0
-29 -39 0
-30 -31 0
-30 -32 0
-30 -33 0
-30 -34 0
-30 -35 0
-30 -36 0
-30 -37 0
-30 -38 0
-30 -39 0
-31 -32 0
-31 -33 0
-31 -34 0
-31 -35 0
-31 -36 0
-31 -37 0
-31 -38 0
-31 -39 0
-32 -33 0
-32 -34 0
-32 -35 0
-32 -36 0
-32 -37 0
-32 -38 0
-32 -39 0
-33 -34 0
-33 -35 0
-33 -36 0
-33 -37 0
-33 -38 0
-33 -39 0
-34 -35 0
-34 -36 0
-34 -37 0
-34 -38 0
-34 -39 0
-35 -36 0
-35 -37 0
-35 -38 0
-35 -39 0
-36 -37 0
-36 -38 0
-36 -39 0
-37 -38 0
-37 -39 0
-38 -39 0
-223 201 27 0
-224 202 28 0
-225 203 29 0
-226 204 30 0
-227 205 31 0
-228 206 32 0
-229 207 0
-230 208 33 0
-231 209 34 0
-232 210 35 0
-233 211 0
-234 212 0
-235 213 0
-236 214 36 0
-237 215 37 0
-238 216 0
-239 217 38 0
-240 218 0
-241 219 0
-242 220 0
-243 221 39 0
-244 222 0
-40 -41 0
-40 -42 0
-40 -43 0
-40 -44 0
-40 -45 0
-40 -46 0
-40 -47 0
-40 -48 0
-40 -49 0
-40 -50 0
-40 -51 0
-40 -52 0
-41 -42 0
-41 -43 0
-41 -44 0
-41 -45 0
-41 -46 0
-41 -47 0
-41 -48 0
-41 -49 0
-41 -50 0
-41 -51 0
-41 -52 0
-42 -43 0
-42 -44 0
-42 -45 0
-42 -46 0
-42 -47 0
-42 -48 0
-42 -49 0
-42 -50 0
-42 -51 0
-42 -52 0
-43 -44 0
-43 -45 0
-43 -46 0
-43 -47 0
-43 -48 0
-43 -49 0
-43 -50 0
-43 -51 0
-43 -52 0
-44 -45 0
-44 -46 0
-44 -47 0
-44 -48 0
-44 -49 0
-44 -50 0
-44 -51 0
-44 -52 0
-45 -46 0
-45 -47 0
-45 -48 0
-45 -49 0
-45 -50 0
-45 -51 0
-45 -52 0
-46 -47 0
-46 -48 0
-46 -49 0
-46 -50 0
-46 -51 0
-46 -52 0
-47 -48 0
-47 -49 0
-47 -50 0
-47 -51 0
-47 -52 0
-48 -49 0
-48 -50 0
-48 -51 0
-48 -52 0
-49 -50 0
-49 -51 0
-49 -52 0
-50 -51 0
-50 -52 0
-51 -52 0
-245 223 40 0
-246 224 41 0
-247 225 42 0
-248 226 43 0
-249 227 44 0
-250 228 45 0
-251 229 0
-252 230 46 0
-253 231 47 0
-254 232 48 0
-255 233 0
-256 234 0
-257 235 0
-258 236 49 0
-259 237 50 0
-260 238 0
-261 239 51 0
-262 240 0
-263 241 0
-264 242 0
-265 243 52 0
-266 244 0
-53 -54 0
-53 -55 0
-53 -56 0
-53 -57 0
-53 -58 0
-53 -59 0
-53 -60 0
-53 -61 0
-53 -62 0
-53 -63 0
-53 -64 0
-53 -65 0
-54 -55 0
-54 -56 0
-54 -57 0
-54 -58 0
-54 -59 0
-54 -60 0
-54 -61 0
-54 -62 0
-54 -63 0
-54 -64 0
-54 -65 0
-55 -56 0
-55 -57 0
-55 -58 0
-55 -59 0
-55 -60 0
-55 -61 0
-55 -62 0
-55 -63 0
-55 -64 0
-55 -65 0
-56 -57 0
-56 -58 0
-56 -59 0
-56 -60 0
-56 -61 0
-56 -62 0
-56 -63 0
-56 -64 0
-56 -65 0
-57 -58 0
-57 -59 0
-57 -60 0
-57 -61 0
-57 -62 0
-57 -63 0
-57 -64 0
-57 -65 0
-58 -59 0
-58 -60 0
-58 -61 0
-58 -62 0
-58 -63 0
-58 -64 0
-58 -65 0
-59 -60 0
-59 -61 0
-59 -62 0
-59 -63 0
-59 -64 0
-59 -65 0
-60 -61 0
-60 -62 0
-60 -63 0
-60 -64 0
-60 -65 0
-61 -62 0
-61 -63 0
-61 -64 0
-61 -65 0
-62 -63 0
-62 -64 0
-62 -65 0
-63 -64 0
-63 -65 0
-64 -65 0
-267 245 53 0
-268 246 54 0
-269 247 55 0
-270 248 56 0
-271 249 57 0
-272 250 58 0
-273 251 0
-274 252 59 0
-275 253 60 0
-276 254 61 0
-277 255 0
-278 256 0
-279 257 0
-280 258 62 0
-281 259 63 0
-282 260 0
-283 261 64 0
-284 262 0
-285 263 0
-286 264 0
-287 265 65 0
-288 266 0
-66 -67 0
-66 -68 0
-66 -69 0
-66 -70 0
-66 -71 0
-66 -72 0
-66 -73 0
-66 -74 0
-66 -75 0
-66 -76 0
-66 -77 0
-66 -78 0
-67 -68 0
-67 -69 0
-67 -70 0
-67 -71 0
-67 -72 0
-67 -73 0
-67 -74 0
-67 -75 0
-67 -76 0
-67 -77 0
-67 -78 0
-68 -69 0
-68 -70 0
-68 -71 0
-68 -72 0
-68 -73 0
-68 -74 0
-68 -75 0
-68 -76 0
-68 -77 0
-68 -78 0
-69 -70 0
-69 -71 0
-69 -72 0
-69 -73 0
-69 -74 0
-69 -75 0
-69 -76 0
-69 -77 0
-69 -78 0
-70 -71 0
-70 -72 0
-70 -73 0
-70 -74 0
-70 -75 0
-70 -76 0
-70 -77 0
-70 -78 0
-71 -72 0
-71 -73 0
-71 -74 0
-71 -75 0
-71 -76 0
-71 -77 0
-71 -78 0
-72 -73 0
-72 -74 0
-72 -75 0
-72 -76 0
-72 -77 0
-72 -78 0
-73 -74 0
-73 -75 0
-73 -76 0
-73 -77 0
-73 -78 0
-74 -75 0
-74 -76 0
-74 -77 0
-74 -78 0
-75 -76 0
-75 -77 0
-75 -78 0
-76 -77 0
-76 -78 0
-77 -78 0
-289 267 66 0
-290 268 67 0
-291 269 68 0
-292 270 69 0
-293 271 70 0
-294 272 71 0
-295 273 0
-296 274 72 0
-297 275 73 0
-298 276 74 0
-299 277 0
-300 278 0
-301 279 0
-302 280 75 0
-303 281 76 0
-304 282 0
-305 283 77 0
-306 284 0
-307 285 0
-308 286 0
-309 287 78 0
-310 288 0
-79 -80 0
-79 -81 0
-79 -82 0
-79 -83 0
-79 -84 0
-79 -85 0
-79 -86 0
-79 -87 0
-79 -88 0
-79 -89 0
-79 -90 0
-79 -91 0
-80 -81 0
-80 -82 0
-80 -83 0
-80 -84 0
-80 -85 0
-80 -86 0
-80 -87 0
-80 -88 0
-80 -89 0
-80 -90 0
-80 -91 0
-81 -82 0
-81 -83 0
-81 -84 0
-81 -85 0
-81 -86 0
-81 -87 0
-81 -88 0
-81 -89 0
-81 -90 0
-81 -91 0
-82 -83 0
-82 -84 0
-82 -85 0
-82 -86 0
-82 -87 0
-82 -88 0
-82 -89 0
-82 -90 0
-82 -91 0
-83 -84 0
-83 -85 0
-83 -86 0
-83 -87 0
-83 -88 0
-83 -89 0
-83 -90 0
-83 -91 0
-84 -85 0
-84 -86 0
-84 -87 0
-84 -88 0
-84 -89 0
-84 -90 0
-84 -91 0
-85 -86 0
-85 -87 0
-85 -88 0
-85 -89 0
-85 -90 0
-85 -91 0
-86 -87 0
-86 -88 0
-86 -89 0
-86 -90 0
-86 -91 0
-87 -88 0
-87 -89 0
-87 -90 0
-87 -91 0
-88 -89 0
-88 -90 0
-88 -91 0
-89 -90 0
-89 -91 0
-90 -91 0
-311 289 79 0
-312 290 80 0
-313 291 81 0
-314 292 82 0
-315 293 83 0
-316 294 84 0
-317 295 0
-318 296 85 0
-319 297 86 0
-320 298 87 0
-321 299 0
-322 300 0
-323 301 0
-324 302 88 0
-325 303 89 0
-326 304 0
-327 305 90 0
-328 306 0
-329 307 0
-330 308 0
-331 309 91 0
-332 310 0
-92 -93 0
-92 -94 0
-92 -95 0
-92 -96 0
-92 -97 0
-92 -98 0
-92 -99 0
-92 -100 0
-92 -101 0
-92 -102 0
-92 -103 0
-92 -104 0
-93 -94 0
-93 -95 0
-93 -96 0
-93 -97 0
-93 -98 0
-93 -99 0
-93 -100 0
-93 -101 0
-93 -102 0
-93 -103 0
-93 -104 0
-94 -95 0
-94 -96 0
-94 -97 0
-94 -98 0
-94 -99 0
-94 -100 0
-94 -101 0
-94 -102 0
-94 -103 0
-94 -104 0
-95 -96 0
-95 -97 0
-95 -98 0
-95 -99 0
-95 -100 0
-95 -101 0
-95 -102 0
-95 -103 0
-95 -104 0
-96 -97 0
-96 -98 0
-96 -99 0
-96 -100 0
-96 -101 0
-96 -102 0
-96 -103 0
-96 -104 0
-97 -98 0
-97 -99 0
-97 -100 0
-97 -101 0
-97 -102 0
-97 -103 0
-97 -104 0
-98 -99 0
-98 -100 0
-98 -101 0
-98 -102 0
-98 -103 0
-98 -104 0
-99 -100 0
-99 -101 0
-99 -102 0
-99 -103 0
-99 -104 0
-100 -101 0
-100 -102 0
-100 -103 0
-100 -104 0
-101 -102 0
-101 -103 0
-101 -104 0
-102 -103 0
-102 -104 0
-103 -104 0
-333 311 92 0
-334 312 93 0
-335 313 94 0
-336 314 95 0
-337 315 96 0
-338 316 97 0
-339 317 0
-340 318 98 0
-341 319 99 0
-342 320 100 0
-343 321 0
-344 322 0
-345 323 0
-346 324 101 0
-347 325 102 0
-348 326 0
-349 327 103 0
-350 328 0
-351 329 0
-352 330 0
-353 331 104 0
-354 332 0
-105 -106 0
-105 -107 0
-105 -108 0
-105 -109 0
-105 -110 0
-105 -111 0
-105 -112 0
-105 -113 0
-105 -114 0
-105 -115 0
-105 -116 0
-105 -117 0
-106 -107 0
-106 -108 0
-106 -109 0
-106 -110 0
-106 -111 0
-106 -112 0
-106 -113 0
-106 -114 0
-106 -115 0
-106 -116 0
-106 -117 0
-107 -108 0
-107 -109 0
-107 -110 0
-107 -111 0
-107 -112 0
-107 -113 0
-107 -114 0
-107 -115 0
-107 -116 0
-107 -117 0
-108 -109 0
-108 -110 0
-108 -111 0
-108 -112 0
-108 -113 0
-108 -114 0
-108 -115 0
-108 -116 0
-108 -117 0
-109 -110 0
-109 -111 0
-109 -112 0
-109 -113 0
-109 -114 0
-109 -115 0
-109 -116 0
-109 -117 0
-110 -111 0
-110 -112 0
-110 -113 0
-110 -114 0
-110 -115 0
-110 -116 0
-110 -117 0
-111 -112 0
-111 -113 0
-111 -114 0
-111 -115 0
-111 -116 0
-111 -117 0
-112 -113 0
-112 -114 0
-112 -115 0
-112 -116 0
-112 -117 0
-113 -114 0
-113 -115 0
-113 -116 0
-113 -117 0
-114 -115 0
-114 -116 0
-114 -117 0
-115 -116 0
-115 -117 0
-116 -117 0
-355 333 105 0
-356 334 106 0
-357 335 107 0
-358 336 108 0
-359 337 109 0
-360 338 110 0
-361 339 0
-362 340 111 0
-363 341 112 0
-364 342 113 0
-365 343 0
-366 344 0
-367 345 0
-368 346 114 0
-369 347 115 0
-370 348 0
-371 349 116 0
-372 350 0
-373 351 0
-374 352 0
-375 353 117 0
-376 354 0
-118 -119 0
-118 -120 0
-118 -121 0
-118 -122 0
-118 -123 0
-118 -124 0
-118 -125 0
-118 -126 0
-118 -127 0
-118 -128 0
-118 -129 0
-118 -130 0
-119 -120 0
-119 -121 0
-119 -122 0
-119 -123 0
-119 -124 0
-119 -125 0
-119 -126 0
-119 -127 0
-119 -128 0
-119 -129 0
-119 -130 0
-120 -121 0
-120 -122 0
-120 -123 0
-120 -124 0
-120 -125 0
-120 -126 0
-120 -127 0
-120 -128 0
-120 -129 0
-120 -130 0
-121 -122 0
-121 -123 0
-121 -124 0
-121 -125 0
-121 -126 0
-121 -127 0
-121 -128 0
-121 -129 0
-121 -130 0
-122 -123 0
-122 -124 0
-122 -125 0
-122 -126 0
-122 -127 0
-122 -128 0
-122 -129 0
-122 -130 0
-123 -124 0
-123 -125 0
-123 -126 0
-123 -127 0
-123 -128 0
-123 -129 0
-123 -130 0
-124 -125 0
-124 -126 0
-124 -127 0
-124 -128 0
-124 -129 0
-124 -130 0
-125 -126 0
-125 -127 0
-125 -128 0
-125 -129 0
-125 -130 0
-126 -127 0
-126 -128 0
-126 -129 0
-126 -130 0
-127 -128 0
-127 -129 0
-127 -130 0
-128 -129 0
-128 -130 0
-129 -130 0
-377 355 118 0
-378 356 119 0
-379 357 120 0
-380 358 121 0
-381 359 122 0
-382 360 123 0
-383 361 0
-384 362 124 0
-385 363 125 0
-386 364 126 0
-387 365 0
-388 366 0
-389 367 0
-390 368 127 0
-391 369 128 0
-392 370 0
-393 371 129 0
-394 372 0
-395 373 0
-396 374 0
-397 375 130 0
-398 376 0
-131 -132 0
-131 -133 0
-131 -134 0
-131 -135 0
-131 -136 0
-131 -137 0
-131 -138 0
-131 -139 0
-131 -140 0
-131 -141 0
-131 -142 0
-131 -143 0
-132 -133 0
-132 -134 0
-132 -135 0
-132 -136 0
-132 -137 0
-132 -138 0
-132 -139 0
-132 -140 0
-132 -141 0
-132 -142 0
-132 -143 0
-133 -134 0
-133 -135 0
-133 -136 0
-133 -137 0
-133 -138 0
-133 -139 0
-133 -140 0
-133 -141 0
-133 -142 0
-133 -143 0
-134 -135 0
-134 -136 0
-134 -137 0
-134 -138 0
-134 -139 0
-134 -140 0
-134 -141 0
-134 -142 0
-134 -143 0
-135 -136 0
-135 -137 0
-135 -138 0
-135 -139 0
-135 -140 0
-135 -141 0
-135 -142 0
-135 -143 0
-136 -137 0
-136 -138 0
-136 -139 0
-136 -140 0
-136 -141 0
-136 -142 0
-136 -143 0
-137 -138 0
-137 -139 0
-137 -140 0
-137 -141 0
-137 -142 0
-137 -143 0
-138 -139 0
-138 -140 0
-138 -141 0
-138 -142 0
-138 -143 0
-139 -140 0
-139 -141 0
-139 -142 0
-139 -143 0
-140 -141 0
-140 -142 0
-140 -143 0
-141 -142 0
-141 -143 0
-142 -143 0
-399 377 131 0
-400 378 132 0
-401 379 133 0
-402 380 134 0
-403 381 135 0
-404 382 136 0
-405 383 0
-406 384 137 0
-407 385 138 0
-408 386 139 0
-409 387 0
-410 388 0
-411 389 0
-412 390 140 0
-413 391 141 0
-414 392 0
-415 393 142 0
-416 394 0
-417 395 0
-418 396 0
-419 397 143 0
-420 398 0
-144 -145 0
-144 -146 0
-144 -147 0
-144 -148 0
-144 -149 0
-144 -150 0
-144 -151 0
-144 -152 0
-144 -153 0
-144 -154 0
-144 -155 0
-144 -156 0
-145 -146 0
-145 -147 0
-145 -148 0
-145 -149 0
-145 -150 0
-145 -151 0
-145 -152 0
-145 -153 0
-145 -154 0
-145 -155 0
-145 -156 0
-146 -147 0
-146 -148 0
-146 -149 0
-146 -150 0
-146 -151 0
-146 -152 0
-146 -153 0
-146 -154 0
-146 -155 0
-146 -156 0
-147 -148 0
-147 -149 0
-147 -150 0
-147 -151 0
-147 -152 0
-147 -153 0
-147 -154 0
-147 -155 0
-147 -156 0
-148 -149 0
-148 -150 0
-148 -151 0
-148 -152 0
-148 -153 0
-148 -154 0
-148 -155 0
-148 -156 0
-149 -150 0
-149 -151 0
-149 -152 0
-149 -153 0
-149 -154 0
-149 -155 0
-149 -156 0
-150 -151 0
-150 -152 0
-150 -153 0
-150 -154 0
-150 -155 0
-150 -156 0
-151 -152 0
-151 -153 0
-151 -154 0
-151 -155 0
-151 -156 0
-152 -153 0
-152 -154 0
-152 -155 0
-152 -156 0
-153 -154 0
-153 -155 0
-153 -156 0
-154 -155 0
-154 -156 0
-155 -156 0
-421 399 144 0
-422 400 145 0
-423 401 146 0
-424 402 147 0
-425 403 148 0
-426 404 149 0
-427 405 0
-428 406 150 0
-429 407 151 0
-430 408 152 0
-431 409 0
-432 410 0
-433 411 0
-434 412 153 0
-435 413 154 0
-436 414 0
-437 415 155 0
-438 416 0
-439 417 0
-440 418 0
-441 419 156 0
-442 420 0
-157 0
-158 0
-159 0
-160 0
-161 0
-162 0
163 0
-164 0
-165 0
-166 0
167 0
168 0
169 0
-170 0
-171 0
172 0
-173 0
174 0
175 0
176 0
-177 0
178 0
1 14 27 40 53 66 79 92 105 118 131 144 0
2 15 28 41 54 67 80 93 106 119 132 145 0
3 16 29 42 55 68 81 94 107 120 133 146 0
4 17 30 43 56 69 82 95 108 121 134 147 0
5 18 31 44 57 70 83 96 109 122 135 148 0
6 19 32 45 58 71 84 97 110 123 136 149 0
7 20 33 46 59 72 85 98 111 124 137 150 0
8 21 34 47 60 73 86 99 112 125 138 151 0
9 22 35 48 61 74 87 100 113 126 139 152 0
10 23 36 49 62 75 88 101 114 127 140 153 0
11 24 37 50 63 76 89 102 115 128 141 154 0
12 25 38 51 64 77 90 103 116 129 142 155 0
13 26 39 52 65 78 91 104 117 130 143 156 0
-443 158 0
-443 174 0
-444 158 0
-444 174 0
-1 443 444 0
-445 157 0
-445 174 0
-446 157 0
-446 174 0
-447 159 0
-447 169 0
-448 159 0
-448 169 0
-449 162 0
-449 168 0
-450 162 0
-450 168 0
-2 445 446 447 448 449 450 0
-451 158 0
-451 169 0
-452 158 0
-452 169 0
-453 160 0
-453 175 0
-454 160 0
-454 175 0
-455 163 0
-455 168 0
-456 163 0
-456 168 0
-3 451 452 453 454 455 456 0
-457 159 0
-457 175 0
-458 159 0
-458 175 0
-459 161 0
-459 178 0
-460 161 0
-460 178 0
-4 457 458 459 460 0
-461 160 0
-461 178 0
-462 160 0
-462 178 0
-5 461 462 0
-463 158 0
-463 168 0
-464 158 0
-464 168 0
-465 163 0
-465 169 0
-466 163 0
-466 169 0
-467 164 0
-467 167 0
-468 164 0
-468 167 0
-6 463 464 465 466 467 468 0
-469 162 0
-469 167 0
-470 162 0
-470 167 0
-471 165 0
-471 172 0
-472 165 0
-472 172 0
-7 469 470 471 472 0
-473 164 0
-473 172 0
-474 164 0
-474 172 0
-8 473 474 0
-9 0
-475 171 0
-475 178 0
-476 171 0
-476 178 0
-477 172 0
-477 176 0
-478 172 0
-478 176 0
-10 475 476 477 478 0
-479 170 0
-479 178 0
-480 170 0
-480 178 0
-481 172 0
-481 177 0
-482 172 0
-482 177 0
-483 173 0
-483 174 0
-484 173 0
-484 174 0
-11 479 480 481 482 483 484 0
-485 171 0
-485 174 0
-486 171 0
-486 174 0
-12 485 486 0
-487 171 0
-487 172 0
-488 171 0
-488 172 0
-489 176 0
-489 178 0
-490 176 0
-490 178 0
-13 487 488 489 490 0
-491 180 0
-491 196 0
-492 180 0
-492 196 0
-14 491 492 0
-493 179 0
-493 196 0
-494 179 0
-494 196 0
-495 181 0
-495 191 0
-496 181 0
-496 191 0
-497 184 0
-497 190 0
-498 184 0
-498 190 0
-15 493 494 495 496 497 498 0
-499 180 0
-499 191 0
-500 180 0
-500 191 0
-501 182 0
-501 197 0
-502 182 0
-502 197 0
-503 185 0
-503 190 0
-504 185 0
-504 190 0
-16 499 500 501 502 503 504 0
-505 181 0
-505 197 0
-506 181 0
-506 197 0
-507 183 0
-507 200 0
-508 183 0
-508 200 0
-17 505 506 507 508 0
-509 182 0
-509 200 0
-510 182 0
-510 200 0
-18 509 510 0
-511 180 0
-511 190 0
-512 180 0
-512 190 0
-513 185 0
-513 191 0
-514 185 0
-514 191 0
-515 186 0
-515 189 0
-516 186 0
-516 189 0
-19 511 512 513 514 515 516 0
-517 184 0
-517 189 0
-518 184 0
-518 189 0
-519 187 0
-519 194 0
-520 187 0
-520 194 0
-20 517 518 519 520 0
-521 186 0
-521 194 0
-522 186 0
-522 194 0
-21 521 522 0
-22 0
-523 193 0
-523 200 0
-524 193 0
-524 200 0
-525 194 0
-525 198 0
-526 194 0
-526 198 0
-23 523 524 525 526 0
-527 192 0
-527 200 0
-528 192 0
-528 200 0
-529 194 0
-529 199 0
-530 194 0
-530 199 0
-531 195 0
-531 196 0
-532 195 0
-532 196 0
-24 527 528 529 530 531 532 0
-533 193 0
-533 196 0
-534 193 0
-534 196 0
-25 533 534 0
-535 193 0
-535 194 0
-536 193 0
-536 194 0
-537 198 0
-537 200 0
-538 198 0
-538 200 0
-26 535 536 537 538 0
-539 202 0
-539 218 0
-540 202 0
-540 218 0
-27 539 540 0
-541 201 0
-541 218 0
-542 201 0
-542 218 0
-543 203 0
-543 213 0
-544 203 0
-544 213 0
-545 206 0
-545 212 0
-546 206 0
-546 212 0
-28 541 542 543 544 545 546 0
-547 202 0
-547 213 0
-548 202 0
-548 213 0
-549 204 0
-549 219 0
-550 204 0
-550 219 0
-551 207 0
-551 212 0
-552 207 0
-552 212 0
-29 547 548 549 550 551 552 0
-553 203 0
-553 219 0
-554 203 0
-554 219 0
-555 205 0
-555 222 0
-556 205 0
-556 222 0
-30 553 554 555 556 0
-557 204 0
-557 222 0
-558 204 0
-558 222 0
-31 557 558 0
-559 202 0
-559 212 0
-560 202 0
-560 212 0
-561 207 0
-561 213 0
-562 207 0
-562 213 0
-563 208 0
-563 211 0
-564 208 0
-564 211 0
-32 559 560 561 562 563 564 0
-565 206 0
-565 211 0
-566 206 0
-566 211 0
-567 209 0
-567 216 0
-568 209 0
-568 216 0
-33 565 566 567 568 0
-569 208 0
-569 216 0
-570 208 0
-570 216 0
-34 569 570 0
-35 0
-571 215 0
-571 222 0
-572 215 0
-572 222 0
-573 216 0
-573 220 0
-574 216 0
-574 220 0
-36 571 572 573 574 0
-575 214 0
-575 222 0
-576 214 0
-576 222 0
-577 216 0
-577 221 0
-578 216 0
-578 221 0
-579 217 0
-579 218 0
-580 217 0
-580 218 0
-37 575 576 577 578 579 580 0
-581 215 0
-581 218 0
-582 215 0
-582 218 0
-38 581 582 0
-583 215 0
-583 216 0
-584 215 0
-584 216 0
-585 220 0
-585 222 0
-586 220 0
-586 222 0
-39 583 584 585 586 0
-587 224 0
-587 240 0
-588 224 0
-588 240 0
-40 587 588 0
-589 223 0
-589 240 0
-590 223 0
-590 240 0
-591 225 0
-591 235 0
-592 225 0
-592 235 0
-593 228 0
-593 234 0
-594 228 0
-594 234 0
-41 589 590 591 592 593 594 0
-595 224 0
-595 235 0
-596 224 0
-596 235 0
-597 226 0
-597 241 0
-598 226 0
-598 241 0
-599 229 0
-599 234 0
-600 229 0
-600 234 0
-42 595 596 597 598 599 600 0
-601 225 0
-601 241 0
-602 225 0
-602 241 0
-603 227 0
-603 244 0
-604 227 0
-604 244 0
-43 601 602 603 604 0
-605 226 0
-605 244 0
-606 226 0
-606 244 0
-44 605 606 0
-607 224 0
-607 234 0
-608 224 0
-608 234 0
-609 229 0
-609 235 0
-610 229 0
-610 235 0
-611 230 0
-611 233 0
-612 230 0
-612 233 0
-45 607 608 609 610 611 612 0
-613 228 0
-613 233 0
-614 228 0
-614 233 0
-615 231 0
-615 238 0
-616 231 0
-616 238 0
-46 613 614 615 616 0
-617 230 0
-617 238 0
-618 230 0
-618 238 0
-47 617 618 0
-48 0
-619 237 0
-619 244 0
-620 237 0
-620 244 0
-621 238 0
-621 242 0
-622 238 0
-622 242 0
-49 619 620 621 622 0
-623 236 0
-623 244 0
-624 236 0
-624 244 0
-625 238 0
-625 243 0
-626 238 0
-626 243 0
-627 239 0
-627 240 0
-628 239 0
-628 240 0
-50 623 624 625 626 627 628 0
-629 237 0
-629 240 0
-630 237 0
-630 240 0
-51 629 630 0
-631 237 0
-631 238 0
-632 237 0
-632 238 0
-633 242 0
-633 244 0
-634 242 0
-634 244 0
-52 631 632 633 634 0
-635 246 0
-635 262 0
-636 246 0
-636 262 0
-53 635 636 0
-637 245 0
-637 262 0
-638 245 0
-638 262 0
-639 247 0
-639 257 0
-640 247 0
-640 257 0
-641 250 0
-641 256 0
-642 250 0
-642 256 0
-54 637 638 639 640 641 642 0
-643 246 0
-643 257 0
-644 246 0
-644 257 0
-645 248 0
-645 263 0
-646 248 0
-646 263 0
-647 251 0
-647 256 0
-648 251 0
-648 256 0
-55 643 644 645 646 647 648 0
-649 247 0
-649 263 0
-650 247 0
-650 263 0
-651 249 0
-651 266 0
-652 249 0
-652 266 0
-56 649 650 651 652 0
-653 248 0
-653 266 0
-654 248 0
-654 266 0
-57 653 654 0
-655 246 0
-655 256 0
-656 246 0
-656 256 0
-657 251 0
-657 257 0
-658 251 0
-658 257 0
-659 252 0
-659 255 0
-660 252 0
-660 255 0
-58 655 656 657 658 659 660 0
-661 250 0
-661 255 0
-662 250 0
-662 255 0
-663 253 0
-663 260 0
-664 253 0
-664 260 0
-59 661 662 663 664 0
-665 252 0
-665 260 0
-666 252 0
-666 260 0
-60 665 666 0
-61 0
-667 259 0
-667 266 0
-668 259 0
-668 266 0
-669 260 0
-669 264 0
-670 260 0
-670 264 0
-62 667 668 669 670 0
-671 258 0
-671 266 0
-672 258 0
-672 266 0
-673 260 0
-673 265 0
-674 260 0
-674 265 0
-675 261 0
-675 262 0
-676 261 0
-676 262 0
-63 671 672 673 674 675 676 0
-677 259 0
-677 262 0
-678 259 0
-678 262 0
-64 677 678 0
-679 259 0
-679 260 0
-680 259 0
-680 260 0
-681 264 0
-681 266 0
-682 264 0
-682 266 0
-65 679 680 681 682 0
-683 268 0
-683 284 0
-684 268 0
-684 284 0
-66 683 684 0
-685 267 0
-685 284 0
-686 267 0
-686 284 0
-687 269 0
-687 279 0
-688 269 0
-688 279 0
-689 272 0
-689 278 0
-690 272 0
-690 278 0
-67 685 686 687 688 689 690 0
-691 268 0
-691 279 0
-692 268 0
-692 279 0
-693 270 0
-693 285 0
-694 270 0
-694 285 0
-695 273 0
-695 278 0
-696 273 0
-696 278 0
-68 691 692 693 694 695 696 0
-697 269 0
-697 285 0
-698 269 0
-698 285 0
-699 271 0
-699 288 0
-700 271 0
-700 288 0
-69 697 698 699 700 0
-701 270 0
-701 288 0
-702 270 0
-702 288 0
-70 701 702 0
-703 268 0
-703 278 0
-704 268 0
-704 278 0
-705 273 0
-705 279 0
-706 273 0
-706 279 0
-707 274 0
-707 277 0
-708 274 0
-708 277 0
-71 703 704 705 706 707 708 0
-709 272 0
-709 277 0
-710 272 0
-710 277 0
-711 275 0
-711 282 0
-712 275 0
-712 282 0
-72 709 710 711 712 0
-713 274 0
-713 282 0
-714 274 0
-714 282 0
-73 713 714 0
-74 0
-715 281 0
-715 288 0
-716 281 0
-716 288 0
-717 282 0
-717 286 0
-718 282 0
-718 286 0
-75 715 716 717 718 0
-719 280 0
-719 288 0
-720 280 0
-720 288 0
-721 282 0
-721 287 0
-722 282 0
-722 287 0
-723 283 0
-723 284 0
-724 283 0
-724 284 0
-76 719 720 721 722 723 724 0
-725 281 0
-725 284 0
-726 281 0
-726 284 0
-77 725 726 0
-727 281 0
-727 282 0
-728 281 0
-728 282 0
-729 286 0
-729 288 0
-730 286 0
-730 288 0
-78 727 728 729 730 0
-731 290 0
-731 306 0
-732 290 0
-732 306 0
-79 731 732 0
-733 289 0
-733 306 0
-734 289 0
-734 306 0
-735 291 0
-735 301 0
-736 291 0
-736 301 0
-737 294 0
-737 300 0
-738 294 0
-738 300 0
-80 733 734 735 736 737 738 0
-739 290 0
-739 301 0
-740 290 0
-740 301 0
-741 292 0
-741 307 0
-742 292 0
-742 307 0
-743 295 0
-743 300 0
-744 295 0
-744 300 0
-81 739 740 741 742 743 744 0
-745 291 0
-745 307 0
-746 291 0
-746 307 0
-747 293 0
-747 310 0
-748 293 0
-748 310 0
-82 745 746 747 748 0
-749 292 0
-749 310 0
-750 292 0
-750 310 0
-83 749 750 0
-751 290 0
-751 300 0
-752 290 0
-752 300 0
-753 295 0
-753 301 0
-754 295 0
-754 301 0
-755 296 0
-755 299 0
-756 296 0
-756 299 0
-84 751 752 753 754 755 756 0
-757 294 0
-757 299 0
-758 294 0
-758 299 0
-759 297 0
-759 304 0
-760 297 0
-760 304 0
-85 757 758 759 760 0
-761 296 0
-761 304 0
-762 296 0
-762 304 0
-86 761 762 0
-87 0
-763 303 0
-763 310 0
-764 303 0
-764 310 0
-765 304 0
-765 308 0
-766 304 0
-766 308 0
-88 763 764 765 766 0
-767 302 0
-767 310 0
-768 302 0
-768 310 0
-769 304 0
-769 309 0
-770 304 0
-770 309 0
-771 305 0
-771 306 0
-772 305 0
-772 306 0
-89 767 768 769 770 771 772 0
-773 303 0
-773 306 0
-774 303 0
-774 306 0
-90 773 774 0
-775 303 0
-775 304 0
-776 303 0
-776 304 0
-777 308 0
-777 310 0
-778 308 0
-778 310 0
-91 775 776 777 778 0
-779 312 0
-779 328 0
-780 312 0
-780 328 0
-92 779 780 0
-781 311 0
-781 328 0
-782 311 0
-782 328 0
-783 313 0
-783 323 0
-784 313 0
-784 323 0
-785 316 0
-785 322 0
-786 316 0
-786 322 0
-93 781 782 783 784 785 786 0
-787 312 0
-787 323 0
-788 312 0
-788 323 0
-789 314 0
-789 329 0
-790 314 0
-790 329 0
-791 317 0
-791 322 0
-792 317 0
-792 322 0
-94 787 788 789 790 791 792 0
-793 313 0
-793 329 0
-794 313 0
-794 329 0
-795 315 0
-795 332 0
-796 315 0
-796 332 0
-95 793 794 795 796 0
-797 314 0
-797 332 0
-798 314 0
-798 332 0
-96 797 798 0
-799 312 0
-799 322 0
-800 312 0
-800 322 0
-801 317 0
-801 323 0
-802 317 0
-802 323 0
-803 318 0
-803 321 0
-804 318 0
-804 321 0
-97 799 800 801 802 803 804 0
-805 316 0
-805 321 0
-806 316 0
-806 321 0
-807 319 0
-807 326 0
-808 319 0
-808 326 0
-98 805 806 807 808 0
-809 318 0
-809 326 0
-810 318 0
-810 326 0
-99 809 810 0
-100 0
-811 325 0
-811 332 0
-812 325 0
-812 332 0
-813 326 0
-813 330 0
-814 326 0
-814 330 0
-101 811 812 813 814 0
-815 324 0
-815 332 0
-816 324 0
-816 332 0
-817 326 0
-817 331 0
-818 326 0
-818 331 0
-819 327 0
-819 328 0
-820 327 0
-820 328 0
-102 815 816 817 818 819 820 0
-821 325 0
-821 328 0
-822 325 0
-822 328 0
-103 821 822 0
-823 325 0
-823 326 0
-824 325 0
-824 326 0
-825 330 0
-825 332 0
-826 330 0
-826 332 0
-104 823 824 825 826 0
-827 334 0
-827 350 0
-828 334 0
-828 350 0
-105 827 828 0
-829 333 0
-829 350 0
-830 333 0
-830 350 0
-831 335 0
-831 345 0
-832 335 0
-832 345 0
-833 338 0
-833 344 0
-834 338 0
-834 344 0
-106 829 830 831 832 833 834 0
-835 334 0
-835 345 0
-836 334 0
-836 345 0
-837 336 0
-837 351 0
-838 336 0
-838 351 0
-839 339 0
-839 344 0
-840 339 0
-840 344 0
-107 835 836 837 838 839 840 0
-841 335 0
-841 351 0
-842 335 0
-842 351 0
-843 337 0
-843 354 0
-844 337 0
-844 354 0
-108 841 842 843 844 0
-845 336 0
-845 354 0
-846 336 0
-846 354 0
-109 845 846 0
-847 334 0
-847 344 0
-848 334 0
-848 344 0
-849 339 0
-849 345 0
-850 339 0
-850 345 0
-851 340 0
-851 343 0
-852 340 0
-852 343 0
-110 847 848 849 850 851 852 0
-853 338 0
-853 343 0
-854 338 0
-854 343 0
-855 341 0
-855 348 0
-856 341 0
-856 348 0
-111 853 854 855 856 0
-857 340 0
-857 348 0
-858 340 0
-858 348 0
-112 857 858 0
-113 0
-859 347 0
-859 354 0
-860 347 0
-860 354 0
-861 348 0
-861 352 0
-862 348 0
-862 352 0
-114 859 860 861 862 0
-863 346 0
-863 354 0
-864 346 0
-864 354 0
-865 348 0
-865 353 0
-866 348 0
-866 353 0
-867 349 0
-867 350 0
-868 349 0
-868 350 0
-115 863 864 865 866 867 868 0
-869 347 0
-869 350 0
-870 347 0
-870 350 0
-116 869 870 0
-871 347 0
-871 348 0
-872 347 0
-872 348 0
-873 352 0
-873 354 0
-874 352 0
-874 354 0
-117 871 872 873 874 0
-875 356 0
-875 372 0
-876 356 0
-876 372 0
-118 875 876 0
-877 355 0
-877 372 0
-878 355 0
-878 372 0
-879 357 0
-879 367 0
-880 357 0
-880 367 0
-881 360 0
-881 366 0
-882 360 0
-882 366 0
-119 877 878 879 880 881 882 0
-883 356 0
-883 367 0
-884 356 0
-884 367 0
-885 358 0
-885 373 0
-886 358 0
-886 373 0
-887 361 0
-887 366 0
-888 361 0
-888 366 0
-120 883 884 885 886 887 888 0
-889 357 0
-889 373 0
-890 357 0
-890 373 0
-891 359 0
-891 376 0
-892 359 0
-892 376 0
-121 889 890 891 892 0
-893 358 0
-893 376 0
-894 358 0
-894 376 0
-122 893 894 0
-895 356 0
-895 366 0
-896 356 0
-896 366 0
-897 361 0
-897 367 0
-898 361 0
-898 367 0
-899 362 0
-899 365 0
-900 362 0
-900 365 0
-123 895 896 897 898 899 900 0
-901 360 0
-901 365 0
-902 360 0
-902 365 0
-903 363 0
-903 370 0
-904 363 0
-904 370 0
-124 901 902 903 904 0
-905 362 0
-905 370 0
-906 362 0
-906 370 0
-125 905 906 0
-126 0
-907 369 0
-907 376 0
-908 369 0
-908 376 0
-909 370 0
-909 374 0
-910 370 0
-910 374 0
-127 907 908 909 910 0
-911 368 0
-911 376 0
-912 368 0
-912 376 0
-913 370 0
-913 375 0
-914 370 0
-914 375 0
-915 371 0
-915 372 0
-916 371 0
-916 372 0
-128 911 912 913 914 915 916 0
-917 369 0
-917 372 0
-918 369 0
-918 372 0
-129 917 918 0
-919 369 0
-919 370 0
-920 369 0
-920 370 0
-921 374 0
-921 376 0
-922 374 0
-922 376 0
-130 919 920 921 922 0
-923 378 0
-923 394 0
-924 378 0
-924 394 0
-131 923 924 0
-925 377 0
-925 394 0
-926 377 0
-926 394 0
-927 379 0
-927 389 0
-928 379 0
-928 389 0
-929 382 0
-929 388 0
-930 382 0
-930 388 0
-132 925 926 927 928 929 930 0
-931 378 0
-931 389 0
-932 378 0
-932 389 0
-933 380 0
-933 395 0
-934 380 0
-934 395 0
-935 383 0
-935 388 0
-936 383 0
-936 388 0
-133 931 932 933 934 935 936 0
-937 379 0
-937 395 0
-938 379 0
-938 395 0
-939 381 0
-939 398 0
-940 381 0
-940 398 0
-134 937 938 939 940 0
-941 380 0
-941 398 0
-942 380 0
-942 398 0
-135 941 942 0
-943 378 0
-943 388 0
-944 378 0
-944 388 0
-945 383 0
-945 389 0
-946 383 0
-946 389 0
-947 384 0
-947 387 0
-948 384 0
-948 387 0
-136 943 944 945 946 947 948 0
-949 382 0
-949 387 0
-950 382 0
-950 387 0
-951 385 0
-951 392 0
-952 385 0
-952 392 0
-137 949 950 951 952 0
-953 384 0
-953 392 0
-954 384 0
-954 392 0
-138 953 954 0
-139 0
-955 391 0
-955 398 0
-956 391 0
-956 398 0
-957 392 0
-957 396 0
-958 392 0
-958 396 0
-140 955 956 957 958 0
-959 390 0
-959 398 0
-960 390 0
-960 398 0
-961 392 0
-961 397 0
-962 392 0
-962 397 0
-963 393 0
-963 394 0
-964 393 0
-964 394 0
-141 959 960 961 962 963 964 0
-965 391 0
-965 394 0
-966 391 0
-966 394 0
-142 965 966 0
-967 391 0
-967 392 0
-968 391 0
-968 392 0
-969 396 0
-969 398 0
-970 396 0
-970 398 0
-143 967 968 969 970 0
-971 400 0
-971 416 0
-972 400 0
-972 416 0
-144 971 972 0
-973 399 0
-973 416 0
-974 399 0
-974 416 0
-975 401 0
-975 411 0
-976 401 0
-976 411 0
-977 404 0
-977 410 0
-978 404 0
-978 410 0
-145 973 974 975 976 977 978 0
-979 400 0
-979 411 0
-980 400 0
-980 411 0
-981 402 0
-981 417 0
-982 402 0
-982 417 0
-983 405 0
-983 410 0
-984 405 0
-984 410 0
-146 979 980 981 982 983 984 0
-985 401 0
-985 417 0
-986 401 0
-986 417 0
-987 403 0
-987 420 0
-988 403 0
-988 420 0
-147 985 986 987 988 0
-989 402 0
-989 420 0
-990 402 0
-990 420 0
-148 989 990 0
-991 400 0
-991 410 0
-992 400 0
-992 410 0
-993 405 0
-993 411 0
-994 405 0
-994 411 0
-995 406 0
-995 409 0
-996 406 0
-996 409 0
-149 991 992 993 994 995 996 0
-997 404 0
-997 409 0
-998 404 0
-998 409 0
-999 407 0
-999 414 0
-1000 407 0
-1000 414 0
-150 997 998 999 1000 0
-1001 406 0
-1001 414 0
-1002 406 0
-1002 414 0
-151 1001 1002 0
-152 0
-1003 413 0
-1003 420 0
-1004 413 0
-1004 420 0
-1005 414 0
-1005 418 0
-1006 414 0
-1006 418 0
-153 1003 1004 1005 1006 0
-1007 412 0
-1007 420 0
-1008 412 0
-1008 420 0
-1009 414 0
-1009 419 0
-1010 414 0
-1010 419 0
-1011 415 0
-1011 416 0
-1012 415 0
-1012 416 0
-154 1007 1008 1009 1010 1011 1012 0
-1013 413 0
-1013 416 0
-1014 413 0
-1014 416 0
-155 1013 1014 0
-1015 413 0
-1015 414 0
-1016 413 0
-1016 414 0
-1017 418 0
-1017 420 0
-1018 418 0
-1018 420 0
-156 1015 1016 1017 1018 0
