p cnf 1389 3759
-1 -2 0
-1 -3 0
-1 -4 0
-1 -5 0
-1 -6 0
-1 -7 0
-1 -8 0
-1 -9 0
-1 -10 0
-1 -11 0
-1 -12 0
-1 -13 0
-1 -14 0
-1 -15 0
-2 -3 0
-2 -4 0
-2 -5 0
-2 -6 0
-2 -7 0
-2 -8 0
-2 -9 0
-2 -10 0
-2 -11 0
-2 -12 0
-2 -13 0
-2 -14 0
-2 -15 0
-3 -4 0
-3 -5 0
-3 -6 0
-3 -7 0
-3 -8 0
-3 -9 0
-3 -10 0
-3 -11 0
-3 -12 0
-3 -13 0
-3 -14 0
-3 -15 0
-4 -5 0
-4 -6 0
-4 -7 0
-4 -8 0
-4 -9 0
-4 -10 0
-4 -11 0
-4 -12 0
-4 -13 0
-4 -14 0
-4 -15 0
-5 -6 0
-5 -7 0
-5 -8 0
-5 -9 0
-5 -10 0
-5 -11 0
-5 -12 0
-5 -13 0
-5 -14 0
-5 -15 0
-6 -7 0
-6 -8 0
-6 -9 0
-6 -10 0
-6 -11 0
-6 -12 0
-6 -13 0
-6 -14 0
-6 -15 0
-7 -8 0
-7 -9 0
-7 -10 0
-7 -11 0
-7 -12 0
-7 -13 0
-7 -14 0
-7 -15 0
-8 -9 0
-8 -10 0
-8 -11 0
-8 -12 0
-8 -13 0
-8 -14 0
-8 -15 0
-9 -10 0
-9 -11 0
-9 -12 0
-9 -13 0
-9 -14 0
-9 -15 0
-10 -11 0
-10 -12 0
-10 -13 0
-10 -14 0
-10 -15 0
-11 -12 0
-11 -13 0
-11 -14 0
-11 -15 0
-12 -13 0
-12 -14 0
-12 -15 0
-13 -14 0
-13 -15 0
-14 -15 0
-250 226 1 0
-251 227 0
-252 228 2 0
-253 229 3 0
-254 230 4 0
-255 231 5 0
-256 232 6 0
-257 233 7 0
-258 234 0
-259 235 8 0
-260 236 9 0
-261 237 0
-262 238 0
-263 239 10 0
-264 240 11 0
-265 241 12 0
-266 242 13 0
-267 243 0
-268 244 0
-269 245 14 0
-270 246 0
-271 247 0
-272 248 15 0
-273 249 0
-16 -17 0
-16 -18 0
-16 -19 0
-16 -20 0
-16 -21 0
-16 -22 0
-16 -23 0
-16 -24 0
-16 -25 0
-16 -26 0
-16 -27 0
-16 -28 0
-16 -29 0
-16 -30 0
-17 -18 0
-17 -19 0
-17 -20 0
-17 -21 0
-17 -22 0
-17 -23 0
-17 -24 0
-17 -25 0
-17 -26 0
-17 -27 0
-17 -28 0
-17 -29 0
-17 -30 0
-18 -19 0
-18 -20 0
-18 -21 0
-18 -22 0
-18 -23 0
-18 -24 0
-18 -25 0
-18 -26 0
-18 -27 0
-18 -28 0
-18 -29 0
-18 -30 0
-19 -20 0
-19 -21 0
-19 -22 0
-19 -23 0
-19 -24 0
-19 -25 0
-19 -26 0
-19 -27 0
-19 -28 0
-19 -29 0
-19 -30 0
-20 -21 0
-20 -22 0
-20 -23 0
-20 -24 0
-20 -25 0
-20 -26 0
-20 -27 0
-20 -28 0
-20 -29 0
-20 -30 0
-21 -22 0
-21 -23 0
-21 -24 0
-21 -25 0
-21 -26 0
-21 -27 0
-21 -28 0
-21 -29 0
-21 -30 0
-22 -23 0
-22 -24 0
-22 -25 0
-22 -26 0
-22 -27 0
-22 -28 0
-22 -29 0
-22 -30 0
-23 -24 0
-23 -25 0
-23 -26 0
-23 -27 0
-23 -28 0
-23 -29 0
-23 -30 0
-24 -25 0
-24 -26 0
-24 -27 0
-24 -28 0
-24 -29 0
-24 -30 0
-25 -26 0
-25 -27 0
-25 -28 0
-25 -29 0
-25 -30 0
-26 -27 0
-26 -28 0
-26 -29 0
-26 -30 0
-27 -28 0
-27 -29 0
-27 -30 0
-28 -29 0
-28 -30 0
-29 -30 0
-274 250 16 0
-275 251 0
-276 252 17 0
-277 253 18 0
-278 254 19 0
-279 255 20 0
-280 256 21 0
-281 257 22 0
-282 258 0
-283 259 23 0
-284 260 24 0
-285 261 0
-286 262 0
-287 263 25 0
-288 264 26 0
-289 265 27 0
-290 266 28 0
-291 267 0
-292 268 0
-293 269 29 0
-294 270 0
-295 271 0
-296 272 30 0
-297 273 0
-31 -32 0
-31 -33 0
-31 -34 0
-31 -35 0
-31 -36 0
-31 -37 0
-31 -38 0
-31 -39 0
-31 -40 0
-31 -41 0
-31 -42 0
-31 -43 0
-31 -44 0
-31 -45 0
-32 -33 0
-32 -34 0
-32 -35 0
-32 -36 0
-32 -37 0
-32 -38 0
-32 -39 0
-32 -40 0
-32 -41 0
-32 -42 0
-32 -43 0
-32 -44 0
-32 -45 0
-33 -34 0
-33 -35 0
-33 -36 0
-33 -37 0
-33 -38 0
-33 -39 0
-33 -40 0
-33 -41 0
-33 -42 0
-33 -43 0
-33 -44 0
-33 -45 0
-34 -35 0
-34 -36 0
-34 -37 0
-34 -38 0
-34 -39 0
-34 -40 0
-34 -41 0
-34 -42 0
-34 -43 0
-34 -44 0
-34 -45 0
-35 -36 0
-35 -37 0
-35 -38 0
-35 -39 0
-35 -40 0
-35 -41 0
-35 -42 0
-35 -43 0
-35 -44 0
-35 -45 0
-36 -37 0
-36 -38 0
-36 -39 0
-36 -40 0
-36 -41 0
-36 -42 0
-36 -43 0
-36 -44 0
-36 -45 0
-37 -38 0
-37 -39 0
-37 -40 0
-37 -41 0
-37 -42 0
-37 -43 0
-37 -44 0
-37 -45 0
-38 -39 0
-38 -40 0
-38 -41 0
-38 -42 0
-38 -43 0
-38 -44 0
-38 -45 0
-39 -40 0
-39 -41 0
-39 -42 0
-39 -43 0
-39 -44 0
-39 -45 0
-40 -41 0
-40 -42 0
-40 -43 0
-40 -44 0
-40 -45 0
-41 -42 0
-41 -43 0
-41 -44 0
-41 -45 0
-42 -43 0
-42 -44 0
-42 -45 0
-43 -44 0
-43 -45 0
-44 -45 0
-298 274 31 0
-299 275 0
-300 276 32 0
-301 277 33 0
-302 278 34 0
-303 279 35 0
-304 280 36 0
-305 281 37 0
-306 282 0
-307 283 38 0
-308 284 39 0
-309 285 0
-310 286 0
-311 287 40 0
-312 288 41 0
-313 289 42 0
-314 290 43 0
-315 291 0
-316 292 0
-317 293 44 0
-318 294 0
-319 295 0
-320 296 45 0
-321 297 0
-46 -47 0
-46 -48 0
-46 -49 0
-46 -50 0
-46 -51 0
-46 -52 0
-46 -53 0
-46 -54 0
-46 -55 0
-46 -56 0
-46 -57 0
-46 -58 0
-46 -59 0
-46 -60 0
-47 -48 0
-47 -49 0
-47 -50 0
-47 -51 0
-47 -52 0
-47 -53 0
-47 -54 0
-47 -55 0
-47 -56 0
-47 -57 0
-47 -58 0
-47 -59 0
-47 -60 0
-48 -49 0
-48 -50 0
-48 -51 0
-48 -52 0
-48 -53 0
-48 -54 0
-48 -55 0
-48 -56 0
-48 -57 0
-48 -58 0
-48 -59 0
-48 -60 0
-49 -50 0
-49 -51 0
-49 -52 0
-49 -53 0
-49 -54 0
-49 -55 0
-49 -56 0
-49 -57 0
-49 -58 0
-49 -59 0
-49 -60 0
-50 -51 0
-50 -52 0
-50 -53 0
-50 -54 0
-50 -55 0
-50 -56 0
-50 -57 0
-50 -58 0
-50 -59 0
-50 -60 0
-51 -52 0
-51 -53 0
-51 -54 0
-51 -55 0
-51 -56 0
-51 -57 0
-51 -58 0
-51 -59 0
-51 -60 0
-52 -53 0
-52 -54 0
-52 -55 0
-52 -56 0
-52 -57 0
-52 -58 0
-52 -59 0
-52 -60 0
-53 -54 0
-53 -55 0
-53 -56 0
-53 -57 0
-53 -58 0
-53 -59 0
-53 -60 0
-54 -55 0
-54 -56 0
-54 -57 0
-54 -58 0
-54 -59 0
-54 -60 0
-55 -56 0
-55 -57 0
-55 -58 0
-55 -59 0
-55 -60 0
-56 -57 0
-56 -58 0
-56 -59 0
-56 -60 0
-57 -58 0
-57 -59 0
-57 -60 0
-58 -59 0
-58 -60 0
-59 -60 0
-322 298 46 0
-323 299 0
-324 300 47 0
-325 301 48 0
-326 302 49 0
-327 303 50 0
-328 304 51 0
-329 305 52 0
-330 306 0
-331 307 53 0
-332 308 54 0
-333 309 0
-334 310 0
-335 311 55 0
-336 312 56 0
-337 313 57 0
-338 314 58 0
-339 315 0
-340 316 0
-341 317 59 0
-342 318 0
-343 319 0
-344 320 60 0
-345 321 0
-61 -62 0
-61 -63 0
-61 -64 0
-61 -65 0
-61 -66 0
-61 -67 0
-61 -68 0
-61 -69 0
-61 -70 0
-61 -71 0
-61 -72 0
-61 -73 0
-61 -74 0
-61 -75 0
-62 -63 0
-62 -64 0
-62 -65 0
-62 -66 0
-62 -67 0
-62 -68 0
-62 -69 0
-62 -70 0
-62 -71 0
-62 -72 0
-62 -73 0
-62 -74 0
-62 -75 0
-63 -64 0
-63 -65 0
-63 -66 0
-63 -67 0
-63 -68 0
-63 -69 0
-63 -70 0
-63 -71 0
-63 -72 0
-63 -73 0
-63 -74 0
-63 -75 0
-64 -65 0
-64 -66 0
-64 -67 0
-64 -68 0
-64 -69 0
-64 -70 0
-64 -71 0
-64 -72 0
-64 -73 0
-64 -74 0
-64 -75 0
-65 -66 0
-65 -67 0
-65 -68 0
-65 -69 0
-65 -70 0
-65 -71 0
-65 -72 0
-65 -73 0
-65 -74 0
-65 -75 0
-66 -67 0
-66 -68 0
-66 -69 0
-66 -70 0
-66 -71 0
-66 -72 0
-66 -73 0
-66 -74 0
-66 -75 0
-67 -68 0
-67 -69 0
-67 -70 0
-67 -71 0
-67 -72 0
-67 -73 0
-67 -74 0
-67 -75 0
-68 -69 0
-68 -70 0
-68 -71 0
-68 -72 0
-68 -73 0
-68 -74 0
-68 -75 0
-69 -70 0
-69 -71 0
-69 -72 0
-69 -73 0
-69 -74 0
-69 -75 0
-70 -71 0
-70 -72 0
-70 -73 0
-70 -74 0
-70 -75 0
-71 -72 0
-71 -73 0
-71 -74 0
-71 -75 0
-72 -73 0
-72 -74 0
-72 -75 0
-73 -74 0
-73 -75 0
-74 -75 0
-346 322 61 0
-347 323 0
-348 324 62 0
-349 325 63 0
-350 326 64 0
-351 327 65 0
-352 328 66 0
-353 329 67 0
-354 330 0
-355 331 68 0
-356 332 69 0
-357 333 0
-358 334 0
-359 335 70 0
-360 336 71 0
-361 337 72 0
-362 338 73 0
-363 339 0
-364 340 0
-365 341 74 0
-366 342 0
-367 343 0
-368 344 75 0
-369 345 0
-76 -77 0
-76 -78 0
-76 -79 0
-76 -80 0
-76 -81 0
-76 -82 0
-76 -83 0
-76 -84 0
-76 -85 0
-76 -86 0
-76 -87 0
-76 -88 0
-76 -89 0
-76 -90 0
-77 -78 0
-77 -79 0
-77 -80 0
-77 -81 0
-77 -82 0
-77 -83 0
-77 -84 0
-77 -85 0
-77 -86 0
-77 -87 0
-77 -88 0
-77 -89 0
-77 -90 0
-78 -79 0
-78 -80 0
-78 -81 0
-78 -82 0
-78 -83 0
-78 -84 0
-78 -85 0
-78 -86 0
-78 -87 0
-78 -88 0
-78 -89 0
-78 -90 0
-79 -80 0
-79 -81 0
-79 -82 0
-79 -83 0
-79 -84 0
-79 -85 0
-79 -86 0
-79 -87 0
-79 -88 0
-79 -89 0
-79 -90 0
-80 -81 0
-80 -82 0
-80 -83 0
-80 -84 0
-80 -85 0
-80 -86 0
-80 -87 0
-80 -88 0
-80 -89 0
-80 -90 0
-81 -82 0
-81 -83 0
-81 -84 0
-81 -85 0
-81 -86 0
-81 -87 0
-81 -88 0
-81 -89 0
-81 -90 0
-82 -83 0
-82 -84 0
-82 -85 0
-82 -86 0
-82 -87 0
-82 -88 0
-82 -89 0
-82 -90 0
-83 -84 0
-83 -85 0
-83 -86 0
-83 -87 0
-83 -88 0
-83 -89 0
-83 -90 0
-84 -85 0
-84 -86 0
-84 -87 0
-84 -88 0
-84 -89 0
-84 -90 0
-85 -86 0
-85 -87 0
-85 -88 0
-85 -89 0
-85 -90 0
-86 -87 0
-86 -88 0
-86 -89 0
-86 -90 0
-87 -88 0
-87 -89 0
-87 -90 0
-88 -89 0
-88 -90 0
-89 -90 0
-370 346 76 0
-371 347 0
-372 348 77 0
-373 349 78 0
-374 350 79 0
-375 351 80 0
-376 352 81 0
-377 353 82 0
-378 354 0
-379 355 83 0
-380 356 84 0
-381 357 0
-382 358 0
-383 359 85 0
-384 360 86 0
-385 361 87 0
-386 362 88 0
-387 363 0
-388 364 0
-389 365 89 0
-390 366 0
-391 367 0
-392 368 90 0
-393 369 0
-91 -92 0
-91 -93 0
-91 -94 0
-91 -95 0
-91 -96 0
-91 -97 0
-91 -98 0
-91 -99 0
-91 -100 0
-91 -101 0
-91 -102 0
-91 -103 0
-91 -104 0
-91 -105 0
-92 -93 0
-92 -94 0
-92 -95 0
-92 -96 0
-92 -97 0
-92 -98 0
-92 -99 0
-92 -100 0
-92 -101 0
-92 -102 0
-92 -103 0
-92 -104 0
-92 -105 0
-93 -94 0
-93 -95 0
-93 -96 0
-93 -97 0
-93 -98 0
-93 -99 0
-93 -100 0
-93 -101 0
-93 -102 0
-93 -103 0
-93 -104 0
-93 -105 0
-94 -95 0
-94 -96 0
-94 -97 0
-94 -98 0
-94 -99 0
-94 -100 0
-94 -101 0
-94 -102 0
-94 -103 0
-94 -104 0
-94 -105 0
-95 -96 0
-95 -97 0
-95 -98 0
-95 -99 0
-95 -100 0
-95 -101 0
-95 -102 0
-95 -103 0
-95 -104 0
-95 -105 0
-96 -97 0
-96 -98 0
-96 -99 0
-96 -100 0
-96 -101 0
-96 -102 0
-96 -103 0
-96 -104 0
-96 -105 0
-97 -98 0
-97 -99 0
-97 -100 0
-97 -101 0
-97 -102 0
-97 -103 0
-97 -104 0
-97 -105 0
-98 -99 0
-98 -100 0
-98 -101 0
-98 -102 0
-98 -103 0
-98 -104 0
-98 -105 0
-99 -100 0
-99 -101 0
-99 -102 0
-99 -103 0
-99 -104 0
-99 -105 0
-100 -101 0
-100 -102 0
-100 -103 0
-100 -104 0
-100 -105 0
-101 -102 0
-101 -103 0
-101 -104 0
-101 -105 0
-102 -103 0
-102 -104 0
-102 -105 0
-103 -104 0
-103 -105 0
-104 -105 0
-394 370 91 0
-395 371 0
-396 372 92 0
-397 373 93 0
-398 374 94 0
-399 375 95 0
-400 376 96 0
-401 377 97 0
-402 378 0
-403 379 98 0
-404 380 99 0
-405 381 0
-406 382 0
-407 383 100 0
-408 384 101 0
-409 385 102 0
-410 386 103 0
-411 387 0
-412 388 0
-413 389 104 0
-414 390 0
-415 391 0
-416 392 105 0
-417 393 0
-106 -107 0
-106 -108 0
-106 -109 0
-106 -110 0
-106 -111 0
-106 -112 0
-106 -113 0
-106 -114 0
-106 -115 0
-106 -116 0
-106 -117 0
-106 -118 0
-106 -119 0
-106 -120 0
-107 -108 0
-107 -109 0
-107 -110 0
-107 -111 0
-107 -112 0
-107 -113 0
-107 -114 0
-107 -115 0
-107 -116 0
-107 -117 0
-107 -118 0
-107 -119 0
-107 -120 0
-108 -109 0
-108 -110 0
-108 -111 0
-108 -112 0
-108 -113 0
-108 -114 0
-108 -115 0
-108 -116 0
-108 -117 0
-108 -118 0
-108 -119 0
-108 -120 0
-109 -110 0
-109 -111 0
-109 -112 0
-109 -113 0
-109 -114 0
-109 -115 0
-109 -116 0
-109 -117 0
-109 -118 0
-109 -119 0
-109 -120 0
-110 -111 0
-110 -112 0
-110 -113 0
-110 -114 0
-110 -115 0
-110 -116 0
-110 -117 0
-110 -118 0
-110 -119 0
-110 -120 0
-111 -112 0
-111 -113 0
-111 -114 0
-111 -115 0
-111 -116 0
-111 -117 0
-111 -118 0
-111 -119 0
-111 -120 0
-112 -113 0
-112 -114 0
-112 -115 0
-112 -116 0
-112 -117 0
-112 -118 0
-112 -119 0
-112 -120 0
-113 -114 0
-113 -115 0
-113 -116 0
-113 -117 0
-113 -118 0
-113 -119 0
-113 -120 0
-114 -115 0
-114 -116 0
-114 -117 0
-114 -118 0
-114 -119 0
-114 -120 0
-115 -116 0
-115 -117 0
-115 -118 0
-115 -119 0
-115 -120 0
-116 -117 0
-116 -118 0
-116 -119 0
-116 -120 0
-117 -118 0
-117 -119 0
-117 -120 0
-118 -119 0
-118 -120 0
-119 -120 0
-418 394 106 0
-419 395 0
-420 396 107 0
-421 397 108 0
-422 398 109 0
-423 399 110 0
-424 400 111 0
-425 401 112 0
-426 402 0
-427 403 113 0
-428 404 114 0
-429 405 0
-430 406 0
-431 407 115 0
-432 408 116 0
-433 409 117 0
-434 410 118 0
-435 411 0
-436 412 0
-437 413 119 0
-438 414 0
-439 415 0
-440 416 120 0
-441 417 0
-121 -122 0
-121 -123 0
-121 -124 0
-121 -125 0
-121 -126 0
-121 -127 0
-121 -128 0
-121 -129 0
-121 -130 0
-121 -131 0
-121 -132 0
-121 -133 0
-121 -134 0
-121 -135 0
-122 -123 0
-122 -124 0
-122 -125 0
-122 -126 0
-122 -127 0
-122 -128 0
-122 -129 0
-122 -130 0
-122 -131 0
-122 -132 0
-122 -133 0
-122 -134 0
-122 -135 0
-123 -124 0
-123 -125 0
-123 -126 0
-123 -127 0
-123 -128 0
-123 -129 0
-123 -130 0
-123 -131 0
-123 -132 0
-123 -133 0
-123 -134 0
-123 -135 0
-124 -125 0
-124 -126 0
-124 -127 0
-124 -128 0
-124 -129 0
-124 -130 0
-124 -131 0
-124 -132 0
-124 -133 0
-124 -134 0
-124 -135 0
-125 -126 0
-125 -127 0
-125 -128 0
-125 -129 0
-125 -130 0
-125 -131 0
-125 -132 0
-125 -133 0
-125 -134 0
-125 -135 0
-126 -127 0
-126 -128 0
-126 -129 0
-126 -130 0
-126 -131 0
-126 -132 0
-126 -133 0
-126 -134 0
-126 -135 0
-127 -128 0
-127 -129 0
-127 -130 0
-127 -131 0
-127 -132 0
-127 -133 0
-127 -134 0
-127 -135 0
-128 -129 0
-128 -130 0
-128 -131 0
-128 -132 0
-128 -133 0
-128 -134 0
-128 -135 0
-129 -130 0
-129 -131 0
-129 -132 0
-129 -133 0
-129 -134 0
-129 -135 0
-130 -131 0
-130 -132 0
-130 -133 0
-130 -134 0
-130 -135 0
-131 -132 0
-131 -133 0
-131 -134 0
-131 -135 0
-132 -133 0
-132 -134 0
-132 -135 0
-133 -134 0
-133 -135 0
-134 -135 0
-442 418 121 0
-443 419 0
-444 420 122 0
-445 421 123 0
-446 422 124 0
-447 423 125 0
-448 424 126 0
-449 425 127 0
-450 426 0
-451 427 128 0
-452 428 129 0
-453 429 0
-454 430 0
-455 431 130 0
-456 432 131 0
-457 433 132 0
-458 434 133 0
-459 435 0
-460 436 0
-461 437 134 0
-462 438 0
-463 439 0
-464 440 135 0
-465 441 0
-136 -137 0
-136 -138 0
-136 -139 0
-136 -140 0
-136 -141 0
-136 -142 0
-136 -143 0
-136 -144 0
-136 -145 0
-136 -146 0
-136 -147 0
-136 -148 0
-136 -149 0
-136 -150 0
-137 -138 0
-137 -139 0
-137 -140 0
-137 -141 0
-137 -142 0
-137 -143 0
-137 -144 0
-137 -145 0
-137 -146 0
-137 -147 0
-137 -148 0
-137 -149 0
-137 -150 0
-138 -139 0
-138 -140 0
-138 -141 0
-138 -142 0
-138 -143 0
-138 -144 0
-138 -145 0
-138 -146 0
-138 -147 0
-138 -148 0
-138 -149 0
-138 -150 0
-139 -140 0
-139 -141 0
-139 -142 0
-139 -143 0
-139 -144 0
-139 -145 0
-139 -146 0
-139 -147 0
-139 -148 0
-139 -149 0
-139 -150 0
-140 -141 0
-140 -142 0
-140 -143 0
-140 -144 0
-140 -145 0
-140 -146 0
-140 -147 0
-140 -148 0
-140 -149 0
-140 -150 0
-141 -142 0
-141 -143 0
-141 -144 0
-141 -145 0
-141 -146 0
-141 -147 0
-141 -148 0
-141 -149 0
-141 -150 0
-142 -143 0
-142 -144 0
-142 -145 0
-142 -146 0
-142 -147 0
-142 -148 0
-142 -149 0
-142 -150 0
-143 -144 0
-143 -145 0
-143 -146 0
-143 -147 0
-143 -148 0
-143 -149 0
-143 -150 0
-144 -145 0
-144 -146 0
-144 -147 0
-144 -148 0
-144 -149 0
-144 -150 0
-145 -146 0
-145 -147 0
-145 -148 0
-145 -149 0
-145 -150 0
-146 -147 0
-146 -148 0
-146 -149 0
-146 -150 0
-147 -148 0
-147 -149 0
-147 -150 0
-148 -149 0
-148 -150 0
-149 -150 0
-466 442 136 0
-467 443 0
-468 444 137 0
-469 445 138 0
-470 446 139 0
-471 447 140 0
-472 448 141 0
-473 449 142 0
-474 450 0
-475 451 143 0
-476 452 144 0
-477 453 0
-478 454 0
-479 455 145 0
-480 456 146 0
-481 457 147 0
-482 458 148 0
-483 459 0
-484 460 0
-485 461 149 0
-486 462 0
-487 463 0
-488 464 150 0
-489 465 0
-151 -152 0
-151 -153 0
-151 -154 0
-151 -155 0
-151 -156 0
-151 -157 0
-151 -158 0
-151 -159 0
-151 -160 0
-151 -161 0
-151 -162 0
-151 -163 0
-151 -164 0
-151 -165 0
-152 -153 0
-152 -154 0
-152 -155 0
-152 -156 0
-152 -157 0
-152 -158 0
-152 -159 0
-152 -160 0
-152 -161 0
-152 -162 0
-152 -163 0
-152 -164 0
-152 -165 0
-153 -154 0
-153 -155 0
-153 -156 0
-153 -157 0
-153 -158 0
-153 -159 0
-153 -160 0
-153 -161 0
-153 -162 0
-153 -163 0
-153 -164 0
-153 -165 0
-154 -155 0
-154 -156 0
-154 -157 0
-154 -158 0
-154 -159 0
-154 -160 0
-154 -161 0
-154 -162 0
-154 -163 0
-154 -164 0
-154 -165 0
-155 -156 0
-155 -157 0
-155 -158 0
-155 -159 0
-155 -160 0
-155 -161 0
-155 -162 0
-155 -163 0
-155 -164 0
-155 -165 0
-156 -157 0
-156 -158 0
-156 -159 0
-156 -160 0
-156 -161 0
-156 -162 0
-156 -163 0
-156 -164 0
-156 -165 0
-157 -158 0
-157 -159 0
-157 -160 0
-157 -161 0
-157 -162 0
-157 -163 0
-157 -164 0
-157 -165 0
-158 -159 0
-158 -160 0
-158 -161 0
-158 -162 0
-158 -163 0
-158 -164 0
-158 -165 0
-159 -160 0
-159 -161 0
-159 -162 0
-159 -163 0
-159 -164 0
-159 -165 0
-160 -161 0
-160 -162 0
-160 -163 0
-160 -164 0
-160 -165 0
-161 -162 0
-161 -163 0
-161 -164 0
-161 -165 0
-162 -163 0
-162 -164 0
-162 -165 0
-163 -164 0
-163 -165 0
-164 -165 0
-490 466 151 0
-491 467 0
-492 468 152 0
-493 469 153 0
-494 470 154 0
-495 471 155 0
-496 472 156 0
-497 473 157 0
-498 474 0
-499 475 158 0
-500 476 159 0
-501 477 0
-502 478 0
-503 479 160 0
-504 480 161 0
-505 481 162 0
-506 482 163 0
-507 483 0
-508 484 0
-509 485 164 0
-510 486 0
-511 487 0
-512 488 165 0
-513 489 0
-166 -167 0
-166 -168 0
-166 -169 0
-166 -170 0
-166 -171 0
-166 -172 0
-166 -173 0
-166 -174 0
-166 -175 0
-166 -176 0
-166 -177 0
-166 -178 0
-166 -179 0
-166 -180 0
-167 -168 0
-167 -169 0
-167 -170 0
-167 -171 0
-167 -172 0
-167 -173 0
-167 -174 0
-167 -175 0
-167 -176 0
-167 -177 0
-167 -178 0
-167 -179 0
-167 -180 0
-168 -169 0
-168 -170 0
-168 -171 0
-168 -172 0
-168 -173 0
-168 -174 0
-168 -175 0
-168 -176 0
-168 -177 0
-168 -178 0
-168 -179 0
-168 -180 0
-169 -170 0
-169 -171 0
-169 -172 0
-169 -173 0
-169 -174 0
-169 -175 0
-169 -176 0
-169 -177 0
-169 -178 0
-169 -179 0
-169 -180 0
-170 -171 0
-170 -172 0
-170 -173 0
-170 -174 0
-170 -175 0
-170 -176 0
-170 -177 0
-170 -178 0
-170 -179 0
-170 -180 0
-171 -172 0
-171 -173 0
-171 -174 0
-171 -175 0
-171 -176 0
-171 -177 0
-171 -178 0
-171 -179 0
-171 -180 0
-172 -173 0
-172 -174 0
-172 -175 0
-172 -176 0
-172 -177 0
-172 -178 0
-172 -179 0
-172 -180 0
-173 -174 0
-173 -175 0
-173 -176 0
-173 -177 0
-173 -178 0
-173 -179 0
-173 -180 0
-174 -175 0
-174 -176 0
-174 -177 0
-174 -178 0
-174 -179 0
-174 -180 0
-175 -176 0
-175 -177 0
-175 -178 0
-175 -179 0
-175 -180 0
-176 -177 0
-176 -178 0
-176 -179 0
-176 -180 0
-177 -178 0
-177 -179 0
-177 -180 0
-178 -179 0
-178 -180 0
-179 -180 0
-514 490 166 0
-515 491 0
-516 492 167 0
-517 493 168 0
-518 494 169 0
-519 495 170 0
-520 496 171 0
-521 497 172 0
-522 498 0
-523 499 173 0
-524 500 174 0
-525 501 0
-526 502 0
-527 503 175 0
-528 504 176 0
-529 505 177 0
-530 506 178 0
-531 507 0
-532 508 0
-533 509 179 0
-534 510 0
-535 511 0
-536 512 180 0
-537 513 0
-181 -182 0
-181 -183 0
-181 -184 0
-181 -185 0
-181 -186 0
-181 -187 0
-181 -188 0
-181 -189 0
-181 -190 0
-181 -191 0
-181 -192 0
-181 -193 0
-181 -194 0
-181 -195 0
-182 -183 0
-182 -184 0
-182 -185 0
-182 -186 0
-182 -187 0
-182 -188 0
-182 -189 0
-182 -190 0
-182 -191 0
-182 -192 0
-182 -193 0
-182 -194 0
-182 -195 0
-183 -184 0
-183 -185 0
-183 -186 0
-183 -187 0
-183 -188 0
-183 -189 0
-183 -190 0
-183 -191 0
-183 -192 0
-183 -193 0
-183 -194 0
-183 -195 0
-184 -185 0
-184 -186 0
-184 -187 0
-184 -188 0
-184 -189 0
-184 -190 0
-184 -191 0
-184 -192 0
-184 -193 0
-184 -194 0
-184 -195 0
-185 -186 0
-185 -187 0
-185 -188 0
-185 -189 0
-185 -190 0
-185 -191 0
-185 -192 0
-185 -193 0
-185 -194 0
-185 -195 0
-186 -187 0
-186 -188 0
-186 -189 0
-186 -190 0
-186 -191 0
-186 -192 0
-186 -193 0
-186 -194 0
-186 -195 0
-187 -188 0
-187 -189 0
-187 -190 0
-187 -191 0
-187 -192 0
-187 -193 0
-187 -194 0
-187 -195 0
-188 -189 0
-188 -190 0
-188 -191 0
-188 -192 0
-188 -193 0
-188 -194 0
-188 -195 0
-189 -190 0
-189 -191 0
-189 -192 0
-189 -193 0
-189 -194 0
-189 -195 0
-190 -191 0
-190 -192 0
-190 -193 0
-190 -194 0
-190 -195 0
-191 -192 0
-191 -193 0
-191 -194 0
-191 -195 0
-192 -193 0
-192 -194 0
-192 -195 0
-193 -194 0
-193 -195 0
-194 -195 0
-538 514 181 0
-539 515 0
-540 516 182 0
-541 517 183 0
-542 518 184 0
-543 519 185 0
-544 520 186 0
-545 521 187 0
-546 522 0
-547 523 188 0
-548 524 189 0
-549 525 0
-550 526 0
-551 527 190 0
-552 528 191 0
-553 529 192 0
-554 530 193 0
-555 531 0
-556 532 0
-557 533 194 0
-558 534 0
-559 535 0
-560 536 195 0
-561 537 0
-196 -197 0
-196 -198 0
-196 -199 0
-196 -200 0
-196 -201 0
-196 -202 0
-196 -203 0
-196 -204 0
-196 -205 0
-196 -206 0
-196 -207 0
-196 -208 0
-196 -209 0
-196 -210 0
-197 -198 0
-197 -199 0
-197 -200 0
-197 -201 0
-197 -202 0
-197 -203 0
-197 -204 0
-197 -205 0
-197 -206 0
-197 -207 0
-197 -208 0
-197 -209 0
-197 -210 0
-198 -199 0
-198 -200 0
-198 -201 0
-198 -202 0
-198 -203 0
-198 -204 0
-198 -205 0
-198 -206 0
-198 -207 0
-198 -208 0
-198 -209 0
-198 -210 0
-199 -200 0
-199 -201 0
-199 -202 0
-199 -203 0
-199 -204 0
-199 -205 0
-199 -206 0
-199 -207 0
-199 -208 0
-199 -209 0
-199 -210 0
-200 -201 0
-200 -202 0
-200 -203 0
-200 -204 0
-200 -205 0
-200 -206 0
-200 -207 0
-200 -208 0
-200 -209 0
-200 -210 0
-201 -202 0
-201 -203 0
-201 -204 0
-201 -205 0
-201 -206 0
-201 -207 0
-201 -208 0
-201 -209 0
-201 -210 0
-202 -203 0
-202 -204 0
-202 -205 0
-202 -206 0
-202 -207 0
-202 -208 0
-202 -209 0
-202 -210 0
-203 -204 0
-203 -205 0
-203 -206 0
-203 -207 0
-203 -208 0
-203 -209 0
-203 -210 0
-204 -205 0
-204 -206 0
-204 -207 0
-204 -208 0
-204 -209 0
-204 -210 0
-205 -206 0
-205 -207 0
-205 -208 0
-205 -209 0
-205 -210 0
-206 -207 0
-206 -208 0
-206 -209 0
-206 -210 0
-207 -208 0
-207 -209 0
-207 -210 0
-208 -209 0
-208 -210 0
-209 -210 0
-562 538 196 0
-563 539 0
-564 540 197 0
-565 541 198 0
-566 542 199 0
-567 543 200 0
-568 544 201 0
-569 545 202 0
-570 546 0
-571 547 203 0
-572 548 204 0
-573 549 0
-574 550 0
-575 551 205 0
-576 552 206 0
-577 553 207 0
-578 554 208 0
-579 555 0
-580 556 0
-581 557 209 0
-582 558 0
-583 559 0
-584 560 210 0
-585 561 0
-211 -212 0
-211 -213 0
-211 -214 0
-211 -215 0
-211 -216 0
-211 -217 0
-211 -218 0
-211 -219 0
-211 -220 0
-211 -221 0
-211 -222 0
-211 -223 0
-211 -224 0
-211 -225 0
-212 -213 0
-212 -214 0
-212 -215 0
-212 -216 0
-212 -217 0
-212 -218 0
-212 -219 0
-212 -220 0
-212 -221 0
-212 -222 0
-212 -223 0
-212 -224 0
-212 -225 0
-213 -214 0
-213 -215 0
-213 -216 0
-213 -217 0
-213 -218 0
-213 -219 0
-213 -220 0
-213 -221 0
-213 -222 0
-213 -223 0
-213 -224 0
-213 -225 0
-214 -215 0
-214 -216 0
-214 -217 0
-214 -218 0
-214 -219 0
-214 -220 0
-214 -221 0
-214 -222 0
-214 -223 0
-214 -224 0
-214 -225 0
-215 -216 0
-215 -217 0
-215 -218 0
-215 -219 0
-215 -220 0
-215 -221 0
-215 -222 0
-215 -223 0
-215 -224 0
-215 -225 0
-216 -217 0
-216 -218 0
-216 -219 0
-216 -220 0
-216 -221 0
-216 -222 0
-216 -223 0
-216 -224 0
-216 -225 0
-217 -218 0
-217 -219 0
-217 -220 0
-217 -221 0
-217 -222 0
-217 -223 0
-217 -224 0
-217 -225 0
-218 -219 0
-218 -220 0
-218 -221 0
-218 -222 0
-218 -223 0
-218 -224 0
-218 -225 0
-219 -220 0
-219 -221 0
-219 -222 0
-219 -223 0
-219 -224 0
-219 -225 0
-220 -221 0
-220 -222 0
-220 -223 0
-220 -224 0
-220 -225 0
-221 -222 0
-221 -223 0
-221 -224 0
-221 -225 0
-222 -223 0
-222 -224 0
-222 -225 0
-223 -224 0
-223 -225 0
-224 -225 0
-586 562 211 0
-587 563 0
-588 564 212 0
-589 565 213 0
-590 566 214 0
-591 567 215 0
-592 568 216 0
-593 569 217 0
-594 570 0
-595 571 218 0
-596 572 219 0
-597 573 0
-598 574 0
-599 575 220 0
-600 576 221 0
-601 577 222 0
-602 578 223 0
-603 579 0
-604 580 0
-605 581 224 0
-606 582 0
-607 583 0
-608 584 225 0
-609 585 0
-226 0
227 0
-228 0
-229 0
-230 0
-231 0
-232 0
-233 0
234 0
-235 0
-236 0
237 0
238 0
-239 0
-240 0
-241 0
-242 0
243 0
244 0
-245 0
246 0
247 0
-248 0
249 0
1 16 31 46 61 76 91 106 121 136 151 166 181 196 211 0
2 17 32 47 62 77 92 107 122 137 152 167 182 197 212 0
3 18 33 48 63 78 93 108 123 138 153 168 183 198 213 0
4 19 34 49 64 79 94 109 124 139 154 169 184 199 214 0
5 20 35 50 65 80 95 110 125 140 155 170 185 200 215 0
6 21 36 51 66 81 96 111 126 141 156 171 186 201 216 0
7 22 37 52 67 82 97 112 127 142 157 172 187 202 217 0
8 23 38 53 68 83 98 113 128 143 158 173 188 203 218 0
9 24 39 54 69 84 99 114 129 144 159 174 189 204 219 0
10 25 40 55 70 85 100 115 130 145 160 175 190 205 220 0
11 26 41 56 71 86 101 116 131 146 161 176 191 206 221 0
12 27 42 57 72 87 102 117 132 147 162 177 192 207 222 0
13 28 43 58 73 88 103 118 133 148 163 178 193 208 223 0
14 29 44 59 74 89 104 119 134 149 164 179 194 209 224 0
15 30 45 60 75 90 105 120 135 150 165 180 195 210 225 0
-1 0
-610 229 0
-610 249 0
-611 229 0
-611 249 0
-612 230 0
-612 245 0
-613 230 0
-613 245 0
-2 610 611 612 613 0
-614 228 0
-614 249 0
-615 228 0
-615 249 0
-616 230 0
-616 246 0
-617 230 0
-617 246 0
-3 614 615 616 617 0
-618 227 0
-618 238 0
-619 227 0
-619 238 0
-620 228 0
-620 245 0
-621 228 0
-621 245 0
-622 229 0
-622 246 0
-623 229 0
-623 246 0
-624 231 0
-624 236 0
-625 231 0
-625 236 0
-4 618 619 620 621 622 623 624 625 0
-626 227 0
-626 234 0
-627 227 0
-627 234 0
-628 230 0
-628 236 0
-629 230 0
-629 236 0
-5 626 627 628 629 0
-630 234 0
-630 237 0
-631 234 0
-631 237 0
-6 630 631 0
-632 234 0
-632 244 0
-633 234 0
-633 244 0
-634 235 0
-634 240 0
-635 235 0
-635 240 0
-7 632 633 634 635 0
-636 233 0
-636 240 0
-637 233 0
-637 240 0
-638 234 0
-638 243 0
-639 234 0
-639 243 0
-8 636 637 638 639 0
-640 230 0
-640 231 0
-641 230 0
-641 231 0
-642 234 0
-642 238 0
-643 234 0
-643 238 0
-9 640 641 642 643 0
-10 0
-644 233 0
-644 235 0
-645 233 0
-645 235 0
-646 241 0
-646 247 0
-647 241 0
-647 247 0
-648 243 0
-648 244 0
-649 243 0
-649 244 0
-11 644 645 646 647 648 649 0
-650 240 0
-650 247 0
-651 240 0
-651 247 0
-652 242 0
-652 249 0
-653 242 0
-653 249 0
-12 650 651 652 653 0
-654 241 0
-654 249 0
-655 241 0
-655 249 0
-13 654 655 0
-656 228 0
-656 230 0
-657 228 0
-657 230 0
-658 246 0
-658 249 0
-659 246 0
-659 249 0
-14 656 657 658 659 0
-660 247 0
-660 249 0
-661 247 0
-661 249 0
-15 660 661 0
-16 0
-662 253 0
-662 273 0
-663 253 0
-663 273 0
-664 254 0
-664 269 0
-665 254 0
-665 269 0
-17 662 663 664 665 0
-666 252 0
-666 273 0
-667 252 0
-667 273 0
-668 254 0
-668 270 0
-669 254 0
-669 270 0
-18 666 667 668 669 0
-670 251 0
-670 262 0
-671 251 0
-671 262 0
-672 252 0
-672 269 0
-673 252 0
-673 269 0
-674 253 0
-674 270 0
-675 253 0
-675 270 0
-676 255 0
-676 260 0
-677 255 0
-677 260 0
-19 670 671 672 673 674 675 676 677 0
-678 251 0
-678 258 0
-679 251 0
-679 258 0
-680 254 0
-680 260 0
-681 254 0
-681 260 0
-20 678 679 680 681 0
-682 258 0
-682 261 0
-683 258 0
-683 261 0
-21 682 683 0
-684 258 0
-684 268 0
-685 258 0
-685 268 0
-686 259 0
-686 264 0
-687 259 0
-687 264 0
-22 684 685 686 687 0
-688 257 0
-688 264 0
-689 257 0
-689 264 0
-690 258 0
-690 267 0
-691 258 0
-691 267 0
-23 688 689 690 691 0
-692 254 0
-692 255 0
-693 254 0
-693 255 0
-694 258 0
-694 262 0
-695 258 0
-695 262 0
-24 692 693 694 695 0
-25 0
-696 257 0
-696 259 0
-697 257 0
-697 259 0
-698 265 0
-698 271 0
-699 265 0
-699 271 0
-700 267 0
-700 268 0
-701 267 0
-701 268 0
-26 696 697 698 699 700 701 0
-702 264 0
-702 271 0
-703 264 0
-703 271 0
-704 266 0
-704 273 0
-705 266 0
-705 273 0
-27 702 703 704 705 0
-706 265 0
-706 273 0
-707 265 0
-707 273 0
-28 706 707 0
-708 252 0
-708 254 0
-709 252 0
-709 254 0
-710 270 0
-710 273 0
-711 270 0
-711 273 0
-29 708 709 710 711 0
-712 271 0
-712 273 0
-713 271 0
-713 273 0
-30 712 713 0
-31 0
-714 277 0
-714 297 0
-715 277 0
-715 297 0
-716 278 0
-716 293 0
-717 278 0
-717 293 0
-32 714 715 716 717 0
-718 276 0
-718 297 0
-719 276 0
-719 297 0
-720 278 0
-720 294 0
-721 278 0
-721 294 0
-33 718 719 720 721 0
-722 275 0
-722 286 0
-723 275 0
-723 286 0
-724 276 0
-724 293 0
-725 276 0
-725 293 0
-726 277 0
-726 294 0
-727 277 0
-727 294 0
-728 279 0
-728 284 0
-729 279 0
-729 284 0
-34 722 723 724 725 726 727 728 729 0
-730 275 0
-730 282 0
-731 275 0
-731 282 0
-732 278 0
-732 284 0
-733 278 0
-733 284 0
-35 730 731 732 733 0
-734 282 0
-734 285 0
-735 282 0
-735 285 0
-36 734 735 0
-736 282 0
-736 292 0
-737 282 0
-737 292 0
-738 283 0
-738 288 0
-739 283 0
-739 288 0
-37 736 737 738 739 0
-740 281 0
-740 288 0
-741 281 0
-741 288 0
-742 282 0
-742 291 0
-743 282 0
-743 291 0
-38 740 741 742 743 0
-744 278 0
-744 279 0
-745 278 0
-745 279 0
-746 282 0
-746 286 0
-747 282 0
-747 286 0
-39 744 745 746 747 0
-40 0
-748 281 0
-748 283 0
-749 281 0
-749 283 0
-750 289 0
-750 295 0
-751 289 0
-751 295 0
-752 291 0
-752 292 0
-753 291 0
-753 292 0
-41 748 749 750 751 752 753 0
-754 288 0
-754 295 0
-755 288 0
-755 295 0
-756 290 0
-756 297 0
-757 290 0
-757 297 0
-42 754 755 756 757 0
-758 289 0
-758 297 0
-759 289 0
-759 297 0
-43 758 759 0
-760 276 0
-760 278 0
-761 276 0
-761 278 0
-762 294 0
-762 297 0
-763 294 0
-763 297 0
-44 760 761 762 763 0
-764 295 0
-764 297 0
-765 295 0
-765 297 0
-45 764 765 0
-46 0
-766 301 0
-766 321 0
-767 301 0
-767 321 0
-768 302 0
-768 317 0
-769 302 0
-769 317 0
-47 766 767 768 769 0
-770 300 0
-770 321 0
-771 300 0
-771 321 0
-772 302 0
-772 318 0
-773 302 0
-773 318 0
-48 770 771 772 773 0
-774 299 0
-774 310 0
-775 299 0
-775 310 0
-776 300 0
-776 317 0
-777 300 0
-777 317 0
-778 301 0
-778 318 0
-779 301 0
-779 318 0
-780 303 0
-780 308 0
-781 303 0
-781 308 0
-49 774 775 776 777 778 779 780 781 0
-782 299 0
-782 306 0
-783 299 0
-783 306 0
-784 302 0
-784 308 0
-785 302 0
-785 308 0
-50 782 783 784 785 0
-786 306 0
-786 309 0
-787 306 0
-787 309 0
-51 786 787 0
-788 306 0
-788 316 0
-789 306 0
-789 316 0
-790 307 0
-790 312 0
-791 307 0
-791 312 0
-52 788 789 790 791 0
-792 305 0
-792 312 0
-793 305 0
-793 312 0
-794 306 0
-794 315 0
-795 306 0
-795 315 0
-53 792 793 794 795 0
-796 302 0
-796 303 0
-797 302 0
-797 303 0
-798 306 0
-798 310 0
-799 306 0
-799 310 0
-54 796 797 798 799 0
-55 0
-800 305 0
-800 307 0
-801 305 0
-801 307 0
-802 313 0
-802 319 0
-803 313 0
-803 319 0
-804 315 0
-804 316 0
-805 315 0
-805 316 0
-56 800 801 802 803 804 805 0
-806 312 0
-806 319 0
-807 312 0
-807 319 0
-808 314 0
-808 321 0
-809 314 0
-809 321 0
-57 806 807 808 809 0
-810 313 0
-810 321 0
-811 313 0
-811 321 0
-58 810 811 0
-812 300 0
-812 302 0
-813 300 0
-813 302 0
-814 318 0
-814 321 0
-815 318 0
-815 321 0
-59 812 813 814 815 0
-816 319 0
-816 321 0
-817 319 0
-817 321 0
-60 816 817 0
-61 0
-818 325 0
-818 345 0
-819 325 0
-819 345 0
-820 326 0
-820 341 0
-821 326 0
-821 341 0
-62 818 819 820 821 0
-822 324 0
-822 345 0
-823 324 0
-823 345 0
-824 326 0
-824 342 0
-825 326 0
-825 342 0
-63 822 823 824 825 0
-826 323 0
-826 334 0
-827 323 0
-827 334 0
-828 324 0
-828 341 0
-829 324 0
-829 341 0
-830 325 0
-830 342 0
-831 325 0
-831 342 0
-832 327 0
-832 332 0
-833 327 0
-833 332 0
-64 826 827 828 829 830 831 832 833 0
-834 323 0
-834 330 0
-835 323 0
-835 330 0
-836 326 0
-836 332 0
-837 326 0
-837 332 0
-65 834 835 836 837 0
-838 330 0
-838 333 0
-839 330 0
-839 333 0
-66 838 839 0
-840 330 0
-840 340 0
-841 330 0
-841 340 0
-842 331 0
-842 336 0
-843 331 0
-843 336 0
-67 840 841 842 843 0
-844 329 0
-844 336 0
-845 329 0
-845 336 0
-846 330 0
-846 339 0
-847 330 0
-847 339 0
-68 844 845 846 847 0
-848 326 0
-848 327 0
-849 326 0
-849 327 0
-850 330 0
-850 334 0
-851 330 0
-851 334 0
-69 848 849 850 851 0
-70 0
-852 329 0
-852 331 0
-853 329 0
-853 331 0
-854 337 0
-854 343 0
-855 337 0
-855 343 0
-856 339 0
-856 340 0
-857 339 0
-857 340 0
-71 852 853 854 855 856 857 0
-858 336 0
-858 343 0
-859 336 0
-859 343 0
-860 338 0
-860 345 0
-861 338 0
-861 345 0
-72 858 859 860 861 0
-862 337 0
-862 345 0
-863 337 0
-863 345 0
-73 862 863 0
-864 324 0
-864 326 0
-865 324 0
-865 326 0
-866 342 0
-866 345 0
-867 342 0
-867 345 0
-74 864 865 866 867 0
-868 343 0
-868 345 0
-869 343 0
-869 345 0
-75 868 869 0
-76 0
-870 349 0
-870 369 0
-871 349 0
-871 369 0
-872 350 0
-872 365 0
-873 350 0
-873 365 0
-77 870 871 872 873 0
-874 348 0
-874 369 0
-875 348 0
-875 369 0
-876 350 0
-876 366 0
-877 350 0
-877 366 0
-78 874 875 876 877 0
-878 347 0
-878 358 0
-879 347 0
-879 358 0
-880 348 0
-880 365 0
-881 348 0
-881 365 0
-882 349 0
-882 366 0
-883 349 0
-883 366 0
-884 351 0
-884 356 0
-885 351 0
-885 356 0
-79 878 879 880 881 882 883 884 885 0
-886 347 0
-886 354 0
-887 347 0
-887 354 0
-888 350 0
-888 356 0
-889 350 0
-889 356 0
-80 886 887 888 889 0
-890 354 0
-890 357 0
-891 354 0
-891 357 0
-81 890 891 0
-892 354 0
-892 364 0
-893 354 0
-893 364 0
-894 355 0
-894 360 0
-895 355 0
-895 360 0
-82 892 893 894 895 0
-896 353 0
-896 360 0
-897 353 0
-897 360 0
-898 354 0
-898 363 0
-899 354 0
-899 363 0
-83 896 897 898 899 0
-900 350 0
-900 351 0
-901 350 0
-901 351 0
-902 354 0
-902 358 0
-903 354 0
-903 358 0
-84 900 901 902 903 0
-85 0
-904 353 0
-904 355 0
-905 353 0
-905 355 0
-906 361 0
-906 367 0
-907 361 0
-907 367 0
-908 363 0
-908 364 0
-909 363 0
-909 364 0
-86 904 905 906 907 908 909 0
-910 360 0
-910 367 0
-911 360 0
-911 367 0
-912 362 0
-912 369 0
-913 362 0
-913 369 0
-87 910 911 912 913 0
-914 361 0
-914 369 0
-915 361 0
-915 369 0
-88 914 915 0
-916 348 0
-916 350 0
-917 348 0
-917 350 0
-918 366 0
-918 369 0
-919 366 0
-919 369 0
-89 916 917 918 919 0
-920 367 0
-920 369 0
-921 367 0
-921 369 0
-90 920 921 0
-91 0
-922 373 0
-922 393 0
-923 373 0
-923 393 0
-924 374 0
-924 389 0
-925 374 0
-925 389 0
-92 922 923 924 925 0
-926 372 0
-926 393 0
-927 372 0
-927 393 0
-928 374 0
-928 390 0
-929 374 0
-929 390 0
-93 926 927 928 929 0
-930 371 0
-930 382 0
-931 371 0
-931 382 0
-932 372 0
-932 389 0
-933 372 0
-933 389 0
-934 373 0
-934 390 0
-935 373 0
-935 390 0
-936 375 0
-936 380 0
-937 375 0
-937 380 0
-94 930 931 932 933 934 935 936 937 0
-938 371 0
-938 378 0
-939 371 0
-939 378 0
-940 374 0
-940 380 0
-941 374 0
-941 380 0
-95 938 939 940 941 0
-942 378 0
-942 381 0
-943 378 0
-943 381 0
-96 942 943 0
-944 378 0
-944 388 0
-945 378 0
-945 388 0
-946 379 0
-946 384 0
-947 379 0
-947 384 0
-97 944 945 946 947 0
-948 377 0
-948 384 0
-949 377 0
-949 384 0
-950 378 0
-950 387 0
-951 378 0
-951 387 0
-98 948 949 950 951 0
-952 374 0
-952 375 0
-953 374 0
-953 375 0
-954 378 0
-954 382 0
-955 378 0
-955 382 0
-99 952 953 954 955 0
-100 0
-956 377 0
-956 379 0
-957 377 0
-957 379 0
-958 385 0
-958 391 0
-959 385 0
-959 391 0
-960 387 0
-960 388 0
-961 387 0
-961 388 0
-101 956 957 958 959 960 961 0
-962 384 0
-962 391 0
-963 384 0
-963 391 0
-964 386 0
-964 393 0
-965 386 0
-965 393 0
-102 962 963 964 965 0
-966 385 0
-966 393 0
-967 385 0
-967 393 0
-103 966 967 0
-968 372 0
-968 374 0
-969 372 0
-969 374 0
-970 390 0
-970 393 0
-971 390 0
-971 393 0
-104 968 969 970 971 0
-972 391 0
-972 393 0
-973 391 0
-973 393 0
-105 972 973 0
-106 0
-974 397 0
-974 417 0
-975 397 0
-975 417 0
-976 398 0
-976 413 0
-977 398 0
-977 413 0
-107 974 975 976 977 0
-978 396 0
-978 417 0
-979 396 0
-979 417 0
-980 398 0
-980 414 0
-981 398 0
-981 414 0
-108 978 979 980 981 0
-982 395 0
-982 406 0
-983 395 0
-983 406 0
-984 396 0
-984 413 0
-985 396 0
-985 413 0
-986 397 0
-986 414 0
-987 397 0
-987 414 0
-988 399 0
-988 404 0
-989 399 0
-989 404 0
-109 982 983 984 985 986 987 988 989 0
-990 395 0
-990 402 0
-991 395 0
-991 402 0
-992 398 0
-992 404 0
-993 398 0
-993 404 0
-110 990 991 992 993 0
-994 402 0
-994 405 0
-995 402 0
-995 405 0
-111 994 995 0
-996 402 0
-996 412 0
-997 402 0
-997 412 0
-998 403 0
-998 408 0
-999 403 0
-999 408 0
-112 996 997 998 999 0
-1000 401 0
-1000 408 0
-1001 401 0
-1001 408 0
-1002 402 0
-1002 411 0
-1003 402 0
-1003 411 0
-113 1000 1001 1002 1003 0
-1004 398 0
-1004 399 0
-1005 398 0
-1005 399 0
-1006 402 0
-1006 406 0
-1007 402 0
-1007 406 0
-114 1004 1005 1006 1007 0
-115 0
-1008 401 0
-1008 403 0
-1009 401 0
-1009 403 0
-1010 409 0
-1010 415 0
-1011 409 0
-1011 415 0
-1012 411 0
-1012 412 0
-1013 411 0
-1013 412 0
-116 1008 1009 1010 1011 1012 1013 0
-1014 408 0
-1014 415 0
-1015 408 0
-1015 415 0
-1016 410 0
-1016 417 0
-1017 410 0
-1017 417 0
-117 1014 1015 1016 1017 0
-1018 409 0
-1018 417 0
-1019 409 0
-1019 417 0
-118 1018 1019 0
-1020 396 0
-1020 398 0
-1021 396 0
-1021 398 0
-1022 414 0
-1022 417 0
-1023 414 0
-1023 417 0
-119 1020 1021 1022 1023 0
-1024 415 0
-1024 417 0
-1025 415 0
-1025 417 0
-120 1024 1025 0
-121 0
-1026 421 0
-1026 441 0
-1027 421 0
-1027 441 0
-1028 422 0
-1028 437 0
-1029 422 0
-1029 437 0
-122 1026 1027 1028 1029 0
-1030 420 0
-1030 441 0
-1031 420 0
-1031 441 0
-1032 422 0
-1032 438 0
-1033 422 0
-1033 438 0
-123 1030 1031 1032 1033 0
-1034 419 0
-1034 430 0
-1035 419 0
-1035 430 0
-1036 420 0
-1036 437 0
-1037 420 0
-1037 437 0
-1038 421 0
-1038 438 0
-1039 421 0
-1039 438 0
-1040 423 0
-1040 428 0
-1041 423 0
-1041 428 0
-124 1034 1035 1036 1037 1038 1039 1040 1041 0
-1042 419 0
-1042 426 0
-1043 419 0
-1043 426 0
-1044 422 0
-1044 428 0
-1045 422 0
-1045 428 0
-125 1042 1043 1044 1045 0
-1046 426 0
-1046 429 0
-1047 426 0
-1047 429 0
-126 1046 1047 0
-1048 426 0
-1048 436 0
-1049 426 0
-1049 436 0
-1050 427 0
-1050 432 0
-1051 427 0
-1051 432 0
-127 1048 1049 1050 1051 0
-1052 425 0
-1052 432 0
-1053 425 0
-1053 432 0
-1054 426 0
-1054 435 0
-1055 426 0
-1055 435 0
-128 1052 1053 1054 1055 0
-1056 422 0
-1056 423 0
-1057 422 0
-1057 423 0
-1058 426 0
-1058 430 0
-1059 426 0
-1059 430 0
-129 1056 1057 1058 1059 0
-130 0
-1060 425 0
-1060 427 0
-1061 425 0
-1061 427 0
-1062 433 0
-1062 439 0
-1063 433 0
-1063 439 0
-1064 435 0
-1064 436 0
-1065 435 0
-1065 436 0
-131 1060 1061 1062 1063 1064 1065 0
-1066 432 0
-1066 439 0
-1067 432 0
-1067 439 0
-1068 434 0
-1068 441 0
-1069 434 0
-1069 441 0
-132 1066 1067 1068 1069 0
-1070 433 0
-1070 441 0
-1071 433 0
-1071 441 0
-133 1070 1071 0
-1072 420 0
-1072 422 0
-1073 420 0
-1073 422 0
-1074 438 0
-1074 441 0
-1075 438 0
-1075 441 0
-134 1072 1073 1074 1075 0
-1076 439 0
-1076 441 0
-1077 439 0
-1077 441 0
-135 1076 1077 0
-136 0
-1078 445 0
-1078 465 0
-1079 445 0
-1079 465 0
-1080 446 0
-1080 461 0
-1081 446 0
-1081 461 0
-137 1078 1079 1080 1081 0
-1082 444 0
-1082 465 0
-1083 444 0
-1083 465 0
-1084 446 0
-1084 462 0
-1085 446 0
-1085 462 0
-138 1082 1083 1084 1085 0
-1086 443 0
-1086 454 0
-1087 443 0
-1087 454 0
-1088 444 0
-1088 461 0
-1089 444 0
-1089 461 0
-1090 445 0
-1090 462 0
-1091 445 0
-1091 462 0
-1092 447 0
-1092 452 0
-1093 447 0
-1093 452 0
-139 1086 1087 1088 1089 1090 1091 1092 1093 0
-1094 443 0
-1094 450 0
-1095 443 0
-1095 450 0
-1096 446 0
-1096 452 0
-1097 446 0
-1097 452 0
-140 1094 1095 1096 1097 0
-1098 450 0
-1098 453 0
-1099 450 0
-1099 453 0
-141 1098 1099 0
-1100 450 0
-1100 460 0
-1101 450 0
-1101 460 0
-1102 451 0
-1102 456 0
-1103 451 0
-1103 456 0
-142 1100 1101 1102 1103 0
-1104 449 0
-1104 456 0
-1105 449 0
-1105 456 0
-1106 450 0
-1106 459 0
-1107 450 0
-1107 459 0
-143 1104 1105 1106 1107 0
-1108 446 0
-1108 447 0
-1109 446 0
-1109 447 0
-1110 450 0
-1110 454 0
-1111 450 0
-1111 454 0
-144 1108 1109 1110 1111 0
-145 0
-1112 449 0
-1112 451 0
-1113 449 0
-1113 451 0
-1114 457 0
-1114 463 0
-1115 457 0
-1115 463 0
-1116 459 0
-1116 460 0
-1117 459 0
-1117 460 0
-146 1112 1113 1114 1115 1116 1117 0
-1118 456 0
-1118 463 0
-1119 456 0
-1119 463 0
-1120 458 0
-1120 465 0
-1121 458 0
-1121 465 0
-147 1118 1119 1120 1121 0
-1122 457 0
-1122 465 0
-1123 457 0
-1123 465 0
-148 1122 1123 0
-1124 444 0
-1124 446 0
-1125 444 0
-1125 446 0
-1126 462 0
-1126 465 0
-1127 462 0
-1127 465 0
-149 1124 1125 1126 1127 0
-1128 463 0
-1128 465 0
-1129 463 0
-1129 465 0
-150 1128 1129 0
-151 0
-1130 469 0
-1130 489 0
-1131 469 0
-1131 489 0
-1132 470 0
-1132 485 0
-1133 470 0
-1133 485 0
-152 1130 1131 1132 1133 0
-1134 468 0
-1134 489 0
-1135 468 0
-1135 489 0
-1136 470 0
-1136 486 0
-1137 470 0
-1137 486 0
-153 1134 1135 1136 1137 0
-1138 467 0
-1138 478 0
-1139 467 0
-1139 478 0
-1140 468 0
-1140 485 0
-1141 468 0
-1141 485 0
-1142 469 0
-1142 486 0
-1143 469 0
-1143 486 0
-1144 471 0
-1144 476 0
-1145 471 0
-1145 476 0
-154 1138 1139 1140 1141 1142 1143 1144 1145 0
-1146 467 0
-1146 474 0
-1147 467 0
-1147 474 0
-1148 470 0
-1148 476 0
-1149 470 0
-1149 476 0
-155 1146 1147 1148 1149 0
-1150 474 0
-1150 477 0
-1151 474 0
-1151 477 0
-156 1150 1151 0
-1152 474 0
-1152 484 0
-1153 474 0
-1153 484 0
-1154 475 0
-1154 480 0
-1155 475 0
-1155 480 0
-157 1152 1153 1154 1155 0
-1156 473 0
-1156 480 0
-1157 473 0
-1157 480 0
-1158 474 0
-1158 483 0
-1159 474 0
-1159 483 0
-158 1156 1157 1158 1159 0
-1160 470 0
-1160 471 0
-1161 470 0
-1161 471 0
-1162 474 0
-1162 478 0
-1163 474 0
-1163 478 0
-159 1160 1161 1162 1163 0
-160 0
-1164 473 0
-1164 475 0
-1165 473 0
-1165 475 0
-1166 481 0
-1166 487 0
-1167 481 0
-1167 487 0
-1168 483 0
-1168 484 0
-1169 483 0
-1169 484 0
-161 1164 1165 1166 1167 1168 1169 0
-1170 480 0
-1170 487 0
-1171 480 0
-1171 487 0
-1172 482 0
-1172 489 0
-1173 482 0
-1173 489 0
-162 1170 1171 1172 1173 0
-1174 481 0
-1174 489 0
-1175 481 0
-1175 489 0
-163 1174 1175 0
-1176 468 0
-1176 470 0
-1177 468 0
-1177 470 0
-1178 486 0
-1178 489 0
-1179 486 0
-1179 489 0
-164 1176 1177 1178 1179 0
-1180 487 0
-1180 489 0
-1181 487 0
-1181 489 0
-165 1180 1181 0
-166 0
-1182 493 0
-1182 513 0
-1183 493 0
-1183 513 0
-1184 494 0
-1184 509 0
-1185 494 0
-1185 509 0
-167 1182 1183 1184 1185 0
-1186 492 0
-1186 513 0
-1187 492 0
-1187 513 0
-1188 494 0
-1188 510 0
-1189 494 0
-1189 510 0
-168 1186 1187 1188 1189 0
-1190 491 0
-1190 502 0
-1191 491 0
-1191 502 0
-1192 492 0
-1192 509 0
-1193 492 0
-1193 509 0
-1194 493 0
-1194 510 0
-1195 493 0
-1195 510 0
-1196 495 0
-1196 500 0
-1197 495 0
-1197 500 0
-169 1190 1191 1192 1193 1194 1195 1196 1197 0
-1198 491 0
-1198 498 0
-1199 491 0
-1199 498 0
-1200 494 0
-1200 500 0
-1201 494 0
-1201 500 0
-170 1198 1199 1200 1201 0
-1202 498 0
-1202 501 0
-1203 498 0
-1203 501 0
-171 1202 1203 0
-1204 498 0
-1204 508 0
-1205 498 0
-1205 508 0
-1206 499 0
-1206 504 0
-1207 499 0
-1207 504 0
-172 1204 1205 1206 1207 0
-1208 497 0
-1208 504 0
-1209 497 0
-1209 504 0
-1210 498 0
-1210 507 0
-1211 498 0
-1211 507 0
-173 1208 1209 1210 1211 0
-1212 494 0
-1212 495 0
-1213 494 0
-1213 495 0
-1214 498 0
-1214 502 0
-1215 498 0
-1215 502 0
-174 1212 1213 1214 1215 0
-175 0
-1216 497 0
-1216 499 0
-1217 497 0
-1217 499 0
-1218 505 0
-1218 511 0
-1219 505 0
-1219 511 0
-1220 507 0
-1220 508 0
-1221 507 0
-1221 508 0
-176 1216 1217 1218 1219 1220 1221 0
-1222 504 0
-1222 511 0
-1223 504 0
-1223 511 0
-1224 506 0
-1224 513 0
-1225 506 0
-1225 513 0
-177 1222 1223 1224 1225 0
-1226 505 0
-1226 513 0
-1227 505 0
-1227 513 0
-178 1226 1227 0
-1228 492 0
-1228 494 0
-1229 492 0
-1229 494 0
-1230 510 0
-1230 513 0
-1231 510 0
-1231 513 0
-179 1228 1229 1230 1231 0
-1232 511 0
-1232 513 0
-1233 511 0
-1233 513 0
-180 1232 1233 0
-181 0
-1234 517 0
-1234 537 0
-1235 517 0
-1235 537 0
-1236 518 0
-1236 533 0
-1237 518 0
-1237 533 0
-182 1234 1235 1236 1237 0
-1238 516 0
-1238 537 0
-1239 516 0
-1239 537 0
-1240 518 0
-1240 534 0
-1241 518 0
-1241 534 0
-183 1238 1239 1240 1241 0
-1242 515 0
-1242 526 0
-1243 515 0
-1243 526 0
-1244 516 0
-1244 533 0
-1245 516 0
-1245 533 0
-1246 517 0
-1246 534 0
-1247 517 0
-1247 534 0
-1248 519 0
-1248 524 0
-1249 519 0
-1249 524 0
-184 1242 1243 1244 1245 1246 1247 1248 1249 0
-1250 515 0
-1250 522 0
-1251 515 0
-1251 522 0
-1252 518 0
-1252 524 0
-1253 518 0
-1253 524 0
-185 1250 1251 1252 1253 0
-1254 522 0
-1254 525 0
-1255 522 0
-1255 525 0
-186 1254 1255 0
-1256 522 0
-1256 532 0
-1257 522 0
-1257 532 0
-1258 523 0
-1258 528 0
-1259 523 0
-1259 528 0
-187 1256 1257 1258 1259 0
-1260 521 0
-1260 528 0
-1261 521 0
-1261 528 0
-1262 522 0
-1262 531 0
-1263 522 0
-1263 531 0
-188 1260 1261 1262 1263 0
-1264 518 0
-1264 519 0
-1265 518 0
-1265 519 0
-1266 522 0
-1266 526 0
-1267 522 0
-1267 526 0
-189 1264 1265 1266 1267 0
-190 0
-1268 521 0
-1268 523 0
-1269 521 0
-1269 523 0
-1270 529 0
-1270 535 0
-1271 529 0
-1271 535 0
-1272 531 0
-1272 532 0
-1273 531 0
-1273 532 0
-191 1268 1269 1270 1271 1272 1273 0
-1274 528 0
-1274 535 0
-1275 528 0
-1275 535 0
-1276 530 0
-1276 537 0
-1277 530 0
-1277 537 0
-192 1274 1275 1276 1277 0
-1278 529 0
-1278 537 0
-1279 529 0
-1279 537 0
-193 1278 1279 0
-1280 516 0
-1280 518 0
-1281 516 0
-1281 518 0
-1282 534 0
-1282 537 0
-1283 534 0
-1283 537 0
-194 1280 1281 1282 1283 0
-1284 535 0
-1284 537 0
-1285 535 0
-1285 537 0
-195 1284 1285 0
-196 0
-1286 541 0
-1286 561 0
-1287 541 0
-1287 561 0
-1288 542 0
-1288 557 0
-1289 542 0
-1289 557 0
-197 1286 1287 1288 1289 0
-1290 540 0
-1290 561 0
-1291 540 0
-1291 561 0
-1292 542 0
-1292 558 0
-1293 542 0
-1293 558 0
-198 1290 1291 1292 1293 0
-1294 539 0
-1294 550 0
-1295 539 0
-1295 550 0
-1296 540 0
-1296 557 0
-1297 540 0
-1297 557 0
-1298 541 0
-1298 558 0
-1299 541 0
-1299 558 0
-1300 543 0
-1300 548 0
-1301 543 0
-1301 548 0
-199 1294 1295 1296 1297 1298 1299 1300 1301 0
-1302 539 0
-1302 546 0
-1303 539 0
-1303 546 0
-1304 542 0
-1304 548 0
-1305 542 0
-1305 548 0
-200 1302 1303 1304 1305 0
-1306 546 0
-1306 549 0
-1307 546 0
-1307 549 0
-201 1306 1307 0
-1308 546 0
-1308 556 0
-1309 546 0
-1309 556 0
-1310 547 0
-1310 552 0
-1311 547 0
-1311 552 0
-202 1308 1309 1310 1311 0
-1312 545 0
-1312 552 0
-1313 545 0
-1313 552 0
-1314 546 0
-1314 555 0
-1315 546 0
-1315 555 0
-203 1312 1313 1314 1315 0
-1316 542 0
-1316 543 0
-1317 542 0
-1317 543 0
-1318 546 0
-1318 550 0
-1319 546 0
-1319 550 0
-204 1316 1317 1318 1319 0
-205 0
-1320 545 0
-1320 547 0
-1321 545 0
-1321 547 0
-1322 553 0
-1322 559 0
-1323 553 0
-1323 559 0
-1324 555 0
-1324 556 0
-1325 555 0
-1325 556 0
-206 1320 1321 1322 1323 1324 1325 0
-1326 552 0
-1326 559 0
-1327 552 0
-1327 559 0
-1328 554 0
-1328 561 0
-1329 554 0
-1329 561 0
-207 1326 1327 1328 1329 0
-1330 553 0
-1330 561 0
-1331 553 0
-1331 561 0
-208 1330 1331 0
-1332 540 0
-1332 542 0
-1333 540 0
-1333 542 0
-1334 558 0
-1334 561 0
-1335 558 0
-1335 561 0
-209 1332 1333 1334 1335 0
-1336 559 0
-1336 561 0
-1337 559 0
-1337 561 0
-210 1336 1337 0
-211 0
-1338 565 0
-1338 585 0
-1339 565 0
-1339 585 0
-1340 566 0
-1340 581 0
-1341 566 0
-1341 581 0
-212 1338 1339 1340 1341 0
-1342 564 0
-1342 585 0
-1343 564 0
-1343 585 0
-1344 566 0
-1344 582 0
-1345 566 0
-1345 582 0
-213 1342 1343 1344 1345 0
-1346 563 0
-1346 574 0
-1347 563 0
-1347 574 0
-1348 564 0
-1348 581 0
-1349 564 0
-1349 581 0
-1350 565 0
-1350 582 0
-1351 565 0
-1351 582 0
-1352 567 0
-1352 572 0
-1353 567 0
-1353 572 0
-214 1346 1347 1348 1349 1350 1351 1352 1353 0
-1354 563 0
-1354 570 0
-1355 563 0
-1355 570 0
-1356 566 0
-1356 572 0
-1357 566 0
-1357 572 0
-215 1354 1355 1356 1357 0
-1358 570 0
-1358 573 0
-1359 570 0
-1359 573 0
-216 1358 1359 0
-1360 570 0
-1360 580 0
-1361 570 0
-1361 580 0
-1362 571 0
-1362 576 0
-1363 571 0
-1363 576 0
-217 1360 1361 1362 1363 0
-1364 569 0
-1364 576 0
-1365 569 0
-1365 576 0
-1366 570 0
-1366 579 0
-1367 570 0
-1367 579 0
-218 1364 1365 1366 1367 0
-1368 566 0
-1368 567 0
-1369 566 0
-1369 567 0
-1370 570 0
-1370 574 0
-1371 570 0
-1371 574 0
-219 1368 1369 1370 1371 0
-220 0
-1372 569 0
-1372 571 0
-1373 569 0
-1373 571 0
-1374 577 0
-1374 583 0
-1375 577 0
-1375 583 0
-1376 579 0
-1376 580 0
-1377 579 0
-1377 580 0
-221 1372 1373 1374 1375 1376 1377 0
-1378 576 0
-1378 583 0
-1379 576 0
-1379 583 0
-1380 578 0
-1380 585 0
-1381 578 0
-1381 585 0
-222 1378 1379 1380 1381 0
-1382 577 0
-1382 585 0
-1383 577 0
-1383 585 0
-223 1382 1383 0
-1384 564 0
-1384 566 0
-1385 564 0
-1385 566 0
-1386 582 0
-1386 585 0
-1387 582 0
-1387 585 0
-224 1384 1385 1386 1387 0
-1388 583 0
-1388 585 0
-1389 583 0
-1389 585 0
-225 1388 1389 0
