p cnf 1419 3819
-1 -2 0
-1 -3 0
-1 -4 0
-1 -5 0
-1 -6 0
-1 -7 0
-1 -8 0
-1 -9 0
-1 -10 0
-1 -11 0
-1 -12 0
-1 -13 0
-1 -14 0
-1 -15 0
-2 -3 0
-2 -4 0
-2 -5 0
-2 -6 0
-2 -7 0
-2 -8 0
-2 -9 0
-2 -10 0
-2 -11 0
-2 -12 0
-2 -13 0
-2 -14 0
-2 -15 0
-3 -4 0
-3 -5 0
-3 -6 0
-3 -7 0
-3 -8 0
-3 -9 0
-3 -10 0
-3 -11 0
-3 -12 0
-3 -13 0
-3 -14 0
-3 -15 0
-4 -5 0
-4 -6 0
-4 -7 0
-4 -8 0
-4 -9 0
-4 -10 0
-4 -11 0
-4 -12 0
-4 -13 0
-4 -14 0
-4 -15 0
-5 -6 0
-5 -7 0
-5 -8 0
-5 -9 0
-5 -10 0
-5 -11 0
-5 -12 0
-5 -13 0
-5 -14 0
-5 -15 0
-6 -7 0
-6 -8 0
-6 -9 0
-6 -10 0
-6 -11 0
-6 -12 0
-6 -13 0
-6 -14 0
-6 -15 0
-7 -8 0
-7 -9 0
-7 -10 0
-7 -11 0
-7 -12 0
-7 -13 0
-7 -14 0
-7 -15 0
-8 -9 0
-8 -10 0
-8 -11 0
-8 -12 0
-8 -13 0
-8 -14 0
-8 -15 0
-9 -10 0
-9 -11 0
-9 -12 0
-9 -13 0
-9 -14 0
-9 -15 0
-10 -11 0
-10 -12 0
-10 -13 0
-10 -14 0
-10 -15 0
-11 -12 0
-11 -13 0
-11 -14 0
-11 -15 0
-12 -13 0
-12 -14 0
-12 -15 0
-13 -14 0
-13 -15 0
-14 -15 0
-250 226 1 0
-251 227 0
-252 228 2 0
-253 229 3 0
-254 230 4 0
-255 231 5 0
-256 232 6 0
-257 233 7 0
-258 234 8 0
-259 235 0
-260 236 9 0
-261 237 10 0
-262 238 0
-263 239 0
-264 240 11 0
-265 241 12 0
-266 242 13 0
-267 243 14 0
-268 244 0
-269 245 0
-270 246 15 0
-271 247 0
-272 248 0
-273 249 0
-16 -17 0
-16 -18 0
-16 -19 0
-16 -20 0
-16 -21 0
-16 -22 0
-16 -23 0
-16 -24 0
-16 -25 0
-16 -26 0
-16 -27 0
-16 -28 0
-16 -29 0
-16 -30 0
-17 -18 0
-17 -19 0
-17 -20 0
-17 -21 0
-17 -22 0
-17 -23 0
-17 -24 0
-17 -25 0
-17 -26 0
-17 -27 0
-17 -28 0
-17 -29 0
-17 -30 0
-18 -19 0
-18 -20 0
-18 -21 0
-18 -22 0
-18 -23 0
-18 -24 0
-18 -25 0
-18 -26 0
-18 -27 0
-18 -28 0
-18 -29 0
-18 -30 0
-19 -20 0
-19 -21 0
-19 -22 0
-19 -23 0
-19 -24 0
-19 -25 0
-19 -26 0
-19 -27 0
-19 -28 0
-19 -29 0
-19 -30 0
-20 -21 0
-20 -22 0
-20 -23 0
-20 -24 0
-20 -25 0
-20 -26 0
-20 -27 0
-20 -28 0
-20 -29 0
-20 -30 0
-21 -22 0
-21 -23 0
-21 -24 0
-21 -25 0
-21 -26 0
-21 -27 0
-21 -28 0
-21 -29 0
-21 -30 0
-22 -23 0
-22 -24 0
-22 -25 0
-22 -26 0
-22 -27 0
-22 -28 0
-22 -29 0
-22 -30 0
-23 -24 0
-23 -25 0
-23 -26 0
-23 -27 0
-23 -28 0
-23 -29 0
-23 -30 0
-24 -25 0
-24 -26 0
-24 -27 0
-24 -28 0
-24 -29 0
-24 -30 0
-25 -26 0
-25 -27 0
-25 -28 0
-25 -29 0
-25 -30 0
-26 -27 0
-26 -28 0
-26 -29 0
-26 -30 0
-27 -28 0
-27 -29 0
-27 -30 0
-28 -29 0
-28 -30 0
-29 -30 0
-274 250 16 0
-275 251 0
-276 252 17 0
-277 253 18 0
-278 254 19 0
-279 255 20 0
-280 256 21 0
-281 257 22 0
-282 258 23 0
-283 259 0
-284 260 24 0
-285 261 25 0
-286 262 0
-287 263 0
-288 264 26 0
-289 265 27 0
-290 266 28 0
-291 267 29 0
-292 268 0
-293 269 0
-294 270 30 0
-295 271 0
-296 272 0
-297 273 0
-31 -32 0
-31 -33 0
-31 -34 0
-31 -35 0
-31 -36 0
-31 -37 0
-31 -38 0
-31 -39 0
-31 -40 0
-31 -41 0
-31 -42 0
-31 -43 0
-31 -44 0
-31 -45 0
-32 -33 0
-32 -34 0
-32 -35 0
-32 -36 0
-32 -37 0
-32 -38 0
-32 -39 0
-32 -40 0
-32 -41 0
-32 -42 0
-32 -43 0
-32 -44 0
-32 -45 0
-33 -34 0
-33 -35 0
-33 -36 0
-33 -37 0
-33 -38 0
-33 -39 0
-33 -40 0
-33 -41 0
-33 -42 0
-33 -43 0
-33 -44 0
-33 -45 0
-34 -35 0
-34 -36 0
-34 -37 0
-34 -38 0
-34 -39 0
-34 -40 0
-34 -41 0
-34 -42 0
-34 -43 0
-34 -44 0
-34 -45 0
-35 -36 0
-35 -37 0
-35 -38 0
-35 -39 0
-35 -40 0
-35 -41 0
-35 -42 0
-35 -43 0
-35 -44 0
-35 -45 0
-36 -37 0
-36 -38 0
-36 -39 0
-36 -40 0
-36 -41 0
-36 -42 0
-36 -43 0
-36 -44 0
-36 -45 0
-37 -38 0
-37 -39 0
-37 -40 0
-37 -41 0
-37 -42 0
-37 -43 0
-37 -44 0
-37 -45 0
-38 -39 0
-38 -40 0
-38 -41 0
-38 -42 0
-38 -43 0
-38 -44 0
-38 -45 0
-39 -40 0
-39 -41 0
-39 -42 0
-39 -43 0
-39 -44 0
-39 -45 0
-40 -41 0
-40 -42 0
-40 -43 0
-40 -44 0
-40 -45 0
-41 -42 0
-41 -43 0
-41 -44 0
-41 -45 0
-42 -43 0
-42 -44 0
-42 -45 0
-43 -44 0
-43 -45 0
-44 -45 0
-298 274 31 0
-299 275 0
-300 276 32 0
-301 277 33 0
-302 278 34 0
-303 279 35 0
-304 280 36 0
-305 281 37 0
-306 282 38 0
-307 283 0
-308 284 39 0
-309 285 40 0
-310 286 0
-311 287 0
-312 288 41 0
-313 289 42 0
-314 290 43 0
-315 291 44 0
-316 292 0
-317 293 0
-318 294 45 0
-319 295 0
-320 296 0
-321 297 0
-46 -47 0
-46 -48 0
-46 -49 0
-46 -50 0
-46 -51 0
-46 -52 0
-46 -53 0
-46 -54 0
-46 -55 0
-46 -56 0
-46 -57 0
-46 -58 0
-46 -59 0
-46 -60 0
-47 -48 0
-47 -49 0
-47 -50 0
-47 -51 0
-47 -52 0
-47 -53 0
-47 -54 0
-47 -55 0
-47 -56 0
-47 -57 0
-47 -58 0
-47 -59 0
-47 -60 0
-48 -49 0
-48 -50 0
-48 -51 0
-48 -52 0
-48 -53 0
-48 -54 0
-48 -55 0
-48 -56 0
-48 -57 0
-48 -58 0
-48 -59 0
-48 -60 0
-49 -50 0
-49 -51 0
-49 -52 0
-49 -53 0
-49 -54 0
-49 -55 0
-49 -56 0
-49 -57 0
-49 -58 0
-49 -59 0
-49 -60 0
-50 -51 0
-50 -52 0
-50 -53 0
-50 -54 0
-50 -55 0
-50 -56 0
-50 -57 0
-50 -58 0
-50 -59 0
-50 -60 0
-51 -52 0
-51 -53 0
-51 -54 0
-51 -55 0
-51 -56 0
-51 -57 0
-51 -58 0
-51 -59 0
-51 -60 0
-52 -53 0
-52 -54 0
-52 -55 0
-52 -56 0
-52 -57 0
-52 -58 0
-52 -59 0
-52 -60 0
-53 -54 0
-53 -55 0
-53 -56 0
-53 -57 0
-53 -58 0
-53 -59 0
-53 -60 0
-54 -55 0
-54 -56 0
-54 -57 0
-54 -58 0
-54 -59 0
-54 -60 0
-55 -56 0
-55 -57 0
-55 -58 0
-55 -59 0
-55 -60 0
-56 -57 0
-56 -58 0
-56 -59 0
-56 -60 0
-57 -58 0
-57 -59 0
-57 -60 0
-58 -59 0
-58 -60 0
-59 -60 0
-322 298 46 0
-323 299 0
-324 300 47 0
-325 301 48 0
-326 302 49 0
-327 303 50 0
-328 304 51 0
-329 305 52 0
-330 306 53 0
-331 307 0
-332 308 54 0
-333 309 55 0
-334 310 0
-335 311 0
-336 312 56 0
-337 313 57 0
-338 314 58 0
-339 315 59 0
-340 316 0
-341 317 0
-342 318 60 0
-343 319 0
-344 320 0
-345 321 0
-61 -62 0
-61 -63 0
-61 -64 0
-61 -65 0
-61 -66 0
-61 -67 0
-61 -68 0
-61 -69 0
-61 -70 0
-61 -71 0
-61 -72 0
-61 -73 0
-61 -74 0
-61 -75 0
-62 -63 0
-62 -64 0
-62 -65 0
-62 -66 0
-62 -67 0
-62 -68 0
-62 -69 0
-62 -70 0
-62 -71 0
-62 -72 0
-62 -73 0
-62 -74 0
-62 -75 0
-63 -64 0
-63 -65 0
-63 -66 0
-63 -67 0
-63 -68 0
-63 -69 0
-63 -70 0
-63 -71 0
-63 -72 0
-63 -73 0
-63 -74 0
-63 -75 0
-64 -65 0
-64 -66 0
-64 -67 0
-64 -68 0
-64 -69 0
-64 -70 0
-64 -71 0
-64 -72 0
-64 -73 0
-64 -74 0
-64 -75 0
-65 -66 0
-65 -67 0
-65 -68 0
-65 -69 0
-65 -70 0
-65 -71 0
-65 -72 0
-65 -73 0
-65 -74 0
-65 -75 0
-66 -67 0
-66 -68 0
-66 -69 0
-66 -70 0
-66 -71 0
-66 -72 0
-66 -73 0
-66 -74 0
-66 -75 0
-67 -68 0
-67 -69 0
-67 -70 0
-67 -71 0
-67 -72 0
-67 -73 0
-67 -74 0
-67 -75 0
-68 -69 0
-68 -70 0
-68 -71 0
-68 -72 0
-68 -73 0
-68 -74 0
-68 -75 0
-69 -70 0
-69 -71 0
-69 -72 0
-69 -73 0
-69 -74 0
-69 -75 0
-70 -71 0
-70 -72 0
-70 -73 0
-70 -74 0
-70 -75 0
-71 -72 0
-71 -73 0
-71 -74 0
-71 -75 0
-72 -73 0
-72 -74 0
-72 -75 0
-73 -74 0
-73 -75 0
-74 -75 0
-346 322 61 0
-347 323 0
-348 324 62 0
-349 325 63 0
-350 326 64 0
-351 327 65 0
-352 328 66 0
-353 329 67 0
-354 330 68 0
-355 331 0
-356 332 69 0
-357 333 70 0
-358 334 0
-359 335 0
-360 336 71 0
-361 337 72 0
-362 338 73 0
-363 339 74 0
-364 340 0
-365 341 0
-366 342 75 0
-367 343 0
-368 344 0
-369 345 0
-76 -77 0
-76 -78 0
-76 -79 0
-76 -80 0
-76 -81 0
-76 -82 0
-76 -83 0
-76 -84 0
-76 -85 0
-76 -86 0
-76 -87 0
-76 -88 0
-76 -89 0
-76 -90 0
-77 -78 0
-77 -79 0
-77 -80 0
-77 -81 0
-77 -82 0
-77 -83 0
-77 -84 0
-77 -85 0
-77 -86 0
-77 -87 0
-77 -88 0
-77 -89 0
-77 -90 0
-78 -79 0
-78 -80 0
-78 -81 0
-78 -82 0
-78 -83 0
-78 -84 0
-78 -85 0
-78 -86 0
-78 -87 0
-78 -88 0
-78 -89 0
-78 -90 0
-79 -80 0
-79 -81 0
-79 -82 0
-79 -83 0
-79 -84 0
-79 -85 0
-79 -86 0
-79 -87 0
-79 -88 0
-79 -89 0
-79 -90 0
-80 -81 0
-80 -82 0
-80 -83 0
-80 -84 0
-80 -85 0
-80 -86 0
-80 -87 0
-80 -88 0
-80 -89 0
-80 -90 0
-81 -82 0
-81 -83 0
-81 -84 0
-81 -85 0
-81 -86 0
-81 -87 0
-81 -88 0
-81 -89 0
-81 -90 0
-82 -83 0
-82 -84 0
-82 -85 0
-82 -86 0
-82 -87 0
-82 -88 0
-82 -89 0
-82 -90 0
-83 -84 0
-83 -85 0
-83 -86 0
-83 -87 0
-83 -88 0
-83 -89 0
-83 -90 0
-84 -85 0
-84 -86 0
-84 -87 0
-84 -88 0
-84 -89 0
-84 -90 0
-85 -86 0
-85 -87 0
-85 -88 0
-85 -89 0
-85 -90 0
-86 -87 0
-86 -88 0
-86 -89 0
-86 -90 0
-87 -88 0
-87 -89 0
-87 -90 0
-88 -89 0
-88 -90 0
-89 -90 0
-370 346 76 0
-371 347 0
-372 348 77 0
-373 349 78 0
-374 350 79 0
-375 351 80 0
-376 352 81 0
-377 353 82 0
-378 354 83 0
-379 355 0
-380 356 84 0
-381 357 85 0
-382 358 0
-383 359 0
-384 360 86 0
-385 361 87 0
-386 362 88 0
-387 363 89 0
-388 364 0
-389 365 0
-390 366 90 0
-391 367 0
-392 368 0
-393 369 0
-91 -92 0
-91 -93 0
-91 -94 0
-91 -95 0
-91 -96 0
-91 -97 0
-91 -98 0
-91 -99 0
-91 -100 0
-91 -101 0
-91 -102 0
-91 -103 0
-91 -104 0
-91 -105 0
-92 -93 0
-92 -94 0
-92 -95 0
-92 -96 0
-92 -97 0
-92 -98 0
-92 -99 0
-92 -100 0
-92 -101 0
-92 -102 0
-92 -103 0
-92 -104 0
-92 -105 0
-93 -94 0
-93 -95 0
-93 -96 0
-93 -97 0
-93 -98 0
-93 -99 0
-93 -100 0
-93 -101 0
-93 -102 0
-93 -103 0
-93 -104 0
-93 -105 0
-94 -95 0
-94 -96 0
-94 -97 0
-94 -98 0
-94 -99 0
-94 -100 0
-94 -101 0
-94 -102 0
-94 -103 0
-94 -104 0
-94 -105 0
-95 -96 0
-95 -97 0
-95 -98 0
-95 -99 0
-95 -100 0
-95 -101 0
-95 -102 0
-95 -103 0
-95 -104 0
-95 -105 0
-96 -97 0
-96 -98 0
-96 -99 0
-96 -100 0
-96 -101 0
-96 -102 0
-96 -103 0
-96 -104 0
-96 -105 0
-97 -98 0
-97 -99 0
-97 -100 0
-97 -101 0
-97 -102 0
-97 -103 0
-97 -104 0
-97 -105 0
-98 -99 0
-98 -100 0
-98 -101 0
-98 -102 0
-98 -103 0
-98 -104 0
-98 -105 0
-99 -100 0
-99 -101 0
-99 -102 0
-99 -103 0
-99 -104 0
-99 -105 0
-100 -101 0
-100 -102 0
-100 -103 0
-100 -104 0
-100 -105 0
-101 -102 0
-101 -103 0
-101 -104 0
-101 -105 0
-102 -103 0
-102 -104 0
-102 -105 0
-103 -104 0
-103 -105 0
-104 -105 0
-394 370 91 0
-395 371 0
-396 372 92 0
-397 373 93 0
-398 374 94 0
-399 375 95 0
-400 376 96 0
-401 377 97 0
-402 378 98 0
-403 379 0
-404 380 99 0
-405 381 100 0
-406 382 0
-407 383 0
-408 384 101 0
-409 385 102 0
-410 386 103 0
-411 387 104 0
-412 388 0
-413 389 0
-414 390 105 0
-415 391 0
-416 392 0
-417 393 0
-106 -107 0
-106 -108 0
-106 -109 0
-106 -110 0
-106 -111 0
-106 -112 0
-106 -113 0
-106 -114 0
-106 -115 0
-106 -116 0
-106 -117 0
-106 -118 0
-106 -119 0
-106 -120 0
-107 -108 0
-107 -109 0
-107 -110 0
-107 -111 0
-107 -112 0
-107 -113 0
-107 -114 0
-107 -115 0
-107 -116 0
-107 -117 0
-107 -118 0
-107 -119 0
-107 -120 0
-108 -109 0
-108 -110 0
-108 -111 0
-108 -112 0
-108 -113 0
-108 -114 0
-108 -115 0
-108 -116 0
-108 -117 0
-108 -118 0
-108 -119 0
-108 -120 0
-109 -110 0
-109 -111 0
-109 -112 0
-109 -113 0
-109 -114 0
-109 -115 0
-109 -116 0
-109 -117 0
-109 -118 0
-109 -119 0
-109 -120 0
-110 -111 0
-110 -112 0
-110 -113 0
-110 -114 0
-110 -115 0
-110 -116 0
-110 -117 0
-110 -118 0
-110 -119 0
-110 -120 0
-111 -112 0
-111 -113 0
-111 -114 0
-111 -115 0
-111 -116 0
-111 -117 0
-111 -118 0
-111 -119 0
-111 -120 0
-112 -113 0
-112 -114 0
-112 -115 0
-112 -116 0
-112 -117 0
-112 -118 0
-112 -119 0
-112 -120 0
-113 -114 0
-113 -115 0
-113 -116 0
-113 -117 0
-113 -118 0
-113 -119 0
-113 -120 0
-114 -115 0
-114 -116 0
-114 -117 0
-114 -118 0
-114 -119 0
-114 -120 0
-115 -116 0
-115 -117 0
-115 -118 0
-115 -119 0
-115 -120 0
-116 -117 0
-116 -118 0
-116 -119 0
-116 -120 0
-117 -118 0
-117 -119 0
-117 -120 0
-118 -119 0
-118 -120 0
-119 -120 0
-418 394 106 0
-419 395 0
-420 396 107 0
-421 397 108 0
-422 398 109 0
-423 399 110 0
-424 400 111 0
-425 401 112 0
-426 402 113 0
-427 403 0
-428 404 114 0
-429 405 115 0
-430 406 0
-431 407 0
-432 408 116 0
-433 409 117 0
-434 410 118 0
-435 411 119 0
-436 412 0
-437 413 0
-438 414 120 0
-439 415 0
-440 416 0
-441 417 0
-121 -122 0
-121 -123 0
-121 -124 0
-121 -125 0
-121 -126 0
-121 -127 0
-121 -128 0
-121 -129 0
-121 -130 0
-121 -131 0
-121 -132 0
-121 -133 0
-121 -134 0
-121 -135 0
-122 -123 0
-122 -124 0
-122 -125 0
-122 -126 0
-122 -127 0
-122 -128 0
-122 -129 0
-122 -130 0
-122 -131 0
-122 -132 0
-122 -133 0
-122 -134 0
-122 -135 0
-123 -124 0
-123 -125 0
-123 -126 0
-123 -127 0
-123 -128 0
-123 -129 0
-123 -130 0
-123 -131 0
-123 -132 0
-123 -133 0
-123 -134 0
-123 -135 0
-124 -125 0
-124 -126 0
-124 -127 0
-124 -128 0
-124 -129 0
-124 -130 0
-124 -131 0
-124 -132 0
-124 -133 0
-124 -134 0
-124 -135 0
-125 -126 0
-125 -127 0
-125 -128 0
-125 -129 0
-125 -130 0
-125 -131 0
-125 -132 0
-125 -133 0
-125 -134 0
-125 -135 0
-126 -127 0
-126 -128 0
-126 -129 0
-126 -130 0
-126 -131 0
-126 -132 0
-126 -133 0
-126 -134 0
-126 -135 0
-127 -128 0
-127 -129 0
-127 -130 0
-127 -131 0
-127 -132 0
-127 -133 0
-127 -134 0
-127 -135 0
-128 -129 0
-128 -130 0
-128 -131 0
-128 -132 0
-128 -133 0
-128 -134 0
-128 -135 0
-129 -130 0
-129 -131 0
-129 -132 0
-129 -133 0
-129 -134 0
-129 -135 0
-130 -131 0
-130 -132 0
-130 -133 0
-130 -134 0
-130 -135 0
-131 -132 0
-131 -133 0
-131 -134 0
-131 -135 0
-132 -133 0
-132 -134 0
-132 -135 0
-133 -134 0
-133 -135 0
-134 -135 0
-442 418 121 0
-443 419 0
-444 420 122 0
-445 421 123 0
-446 422 124 0
-447 423 125 0
-448 424 126 0
-449 425 127 0
-450 426 128 0
-451 427 0
-452 428 129 0
-453 429 130 0
-454 430 0
-455 431 0
-456 432 131 0
-457 433 132 0
-458 434 133 0
-459 435 134 0
-460 436 0
-461 437 0
-462 438 135 0
-463 439 0
-464 440 0
-465 441 0
-136 -137 0
-136 -138 0
-136 -139 0
-136 -140 0
-136 -141 0
-136 -142 0
-136 -143 0
-136 -144 0
-136 -145 0
-136 -146 0
-136 -147 0
-136 -148 0
-136 -149 0
-136 -150 0
-137 -138 0
-137 -139 0
-137 -140 0
-137 -141 0
-137 -142 0
-137 -143 0
-137 -144 0
-137 -145 0
-137 -146 0
-137 -147 0
-137 -148 0
-137 -149 0
-137 -150 0
-138 -139 0
-138 -140 0
-138 -141 0
-138 -142 0
-138 -143 0
-138 -144 0
-138 -145 0
-138 -146 0
-138 -147 0
-138 -148 0
-138 -149 0
-138 -150 0
-139 -140 0
-139 -141 0
-139 -142 0
-139 -143 0
-139 -144 0
-139 -145 0
-139 -146 0
-139 -147 0
-139 -148 0
-139 -149 0
-139 -150 0
-140 -141 0
-140 -142 0
-140 -143 0
-140 -144 0
-140 -145 0
-140 -146 0
-140 -147 0
-140 -148 0
-140 -149 0
-140 -150 0
-141 -142 0
-141 -143 0
-141 -144 0
-141 -145 0
-141 -146 0
-141 -147 0
-141 -148 0
-141 -149 0
-141 -150 0
-142 -143 0
-142 -144 0
-142 -145 0
-142 -146 0
-142 -147 0
-142 -148 0
-142 -149 0
-142 -150 0
-143 -144 0
-143 -145 0
-143 -146 0
-143 -147 0
-143 -148 0
-143 -149 0
-143 -150 0
-144 -145 0
-144 -146 0
-144 -147 0
-144 -148 0
-144 -149 0
-144 -150 0
-145 -146 0
-145 -147 0
-145 -148 0
-145 -149 0
-145 -150 0
-146 -147 0
-146 -148 0
-146 -149 0
-146 -150 0
-147 -148 0
-147 -149 0
-147 -150 0
-148 -149 0
-148 -150 0
-149 -150 0
-466 442 136 0
-467 443 0
-468 444 137 0
-469 445 138 0
-470 446 139 0
-471 447 140 0
-472 448 141 0
-473 449 142 0
-474 450 143 0
-475 451 0
-476 452 144 0
-477 453 145 0
-478 454 0
-479 455 0
-480 456 146 0
-481 457 147 0
-482 458 148 0
-483 459 149 0
-484 460 0
-485 461 0
-486 462 150 0
-487 463 0
-488 464 0
-489 465 0
-151 -152 0
-151 -153 0
-151 -154 0
-151 -155 0
-151 -156 0
-151 -157 0
-151 -158 0
-151 -159 0
-151 -160 0
-151 -161 0
-151 -162 0
-151 -163 0
-151 -164 0
-151 -165 0
-152 -153 0
-152 -154 0
-152 -155 0
-152 -156 0
-152 -157 0
-152 -158 0
-152 -159 0
-152 -160 0
-152 -161 0
-152 -162 0
-152 -163 0
-152 -164 0
-152 -165 0
-153 -154 0
-153 -155 0
-153 -156 0
-153 -157 0
-153 -158 0
-153 -159 0
-153 -160 0
-153 -161 0
-153 -162 0
-153 -163 0
-153 -164 0
-153 -165 0
-154 -155 0
-154 -156 0
-154 -157 0
-154 -158 0
-154 -159 0
-154 -160 0
-154 -161 0
-154 -162 0
-154 -163 0
-154 -164 0
-154 -165 0
-155 -156 0
-155 -157 0
-155 -158 0
-155 -159 0
-155 -160 0
-155 -161 0
-155 -162 0
-155 -163 0
-155 -164 0
-155 -165 0
-156 -157 0
-156 -158 0
-156 -159 0
-156 -160 0
-156 -161 0
-156 -162 0
-156 -163 0
-156 -164 0
-156 -165 0
-157 -158 0
-157 -159 0
-157 -160 0
-157 -161 0
-157 -162 0
-157 -163 0
-157 -164 0
-157 -165 0
-158 -159 0
-158 -160 0
-158 -161 0
-158 -162 0
-158 -163 0
-158 -164 0
-158 -165 0
-159 -160 0
-159 -161 0
-159 -162 0
-159 -163 0
-159 -164 0
-159 -165 0
-160 -161 0
-160 -162 0
-160 -163 0
-160 -164 0
-160 -165 0
-161 -162 0
-161 -163 0
-161 -164 0
-161 -165 0
-162 -163 0
-162 -164 0
-162 -165 0
-163 -164 0
-163 -165 0
-164 -165 0
-490 466 151 0
-491 467 0
-492 468 152 0
-493 469 153 0
-494 470 154 0
-495 471 155 0
-496 472 156 0
-497 473 157 0
-498 474 158 0
-499 475 0
-500 476 159 0
-501 477 160 0
-502 478 0
-503 479 0
-504 480 161 0
-505 481 162 0
-506 482 163 0
-507 483 164 0
-508 484 0
-509 485 0
-510 486 165 0
-511 487 0
-512 488 0
-513 489 0
-166 -167 0
-166 -168 0
-166 -169 0
-166 -170 0
-166 -171 0
-166 -172 0
-166 -173 0
-166 -174 0
-166 -175 0
-166 -176 0
-166 -177 0
-166 -178 0
-166 -179 0
-166 -180 0
-167 -168 0
-167 -169 0
-167 -170 0
-167 -171 0
-167 -172 0
-167 -173 0
-167 -174 0
-167 -175 0
-167 -176 0
-167 -177 0
-167 -178 0
-167 -179 0
-167 -180 0
-168 -169 0
-168 -170 0
-168 -171 0
-168 -172 0
-168 -173 0
-168 -174 0
-168 -175 0
-168 -176 0
-168 -177 0
-168 -178 0
-168 -179 0
-168 -180 0
-169 -170 0
-169 -171 0
-169 -172 0
-169 -173 0
-169 -174 0
-169 -175 0
-169 -176 0
-169 -177 0
-169 -178 0
-169 -179 0
-169 -180 0
-170 -171 0
-170 -172 0
-170 -173 0
-170 -174 0
-170 -175 0
-170 -176 0
-170 -177 0
-170 -178 0
-170 -179 0
-170 -180 0
-171 -172 0
-171 -173 0
-171 -174 0
-171 -175 0
-171 -176 0
-171 -177 0
-171 -178 0
-171 -179 0
-171 -180 0
-172 -173 0
-172 -174 0
-172 -175 0
-172 -176 0
-172 -177 0
-172 -178 0
-172 -179 0
-172 -180 0
-173 -174 0
-173 -175 0
-173 -176 0
-173 -177 0
-173 -178 0
-173 -179 0
-173 -180 0
-174 -175 0
-174 -176 0
-174 -177 0
-174 -178 0
-174 -179 0
-174 -180 0
-175 -176 0
-175 -177 0
-175 -178 0
-175 -179 0
-175 -180 0
-176 -177 0
-176 -178 0
-176 -179 0
-176 -180 0
-177 -178 0
-177 -179 0
-177 -180 0
-178 -179 0
-178 -180 0
-179 -180 0
-514 490 166 0
-515 491 0
-516 492 167 0
-517 493 168 0
-518 494 169 0
-519 495 170 0
-520 496 171 0
-521 497 172 0
-522 498 173 0
-523 499 0
-524 500 174 0
-525 501 175 0
-526 502 0
-527 503 0
-528 504 176 0
-529 505 177 0
-530 506 178 0
-531 507 179 0
-532 508 0
-533 509 0
-534 510 180 0
-535 511 0
-536 512 0
-537 513 0
-181 -182 0
-181 -183 0
-181 -184 0
-181 -185 0
-181 -186 0
-181 -187 0
-181 -188 0
-181 -189 0
-181 -190 0
-181 -191 0
-181 -192 0
-181 -193 0
-181 -194 0
-181 -195 0
-182 -183 0
-182 -184 0
-182 -185 0
-182 -186 0
-182 -187 0
-182 -188 0
-182 -189 0
-182 -190 0
-182 -191 0
-182 -192 0
-182 -193 0
-182 -194 0
-182 -195 0
-183 -184 0
-183 -185 0
-183 -186 0
-183 -187 0
-183 -188 0
-183 -189 0
-183 -190 0
-183 -191 0
-183 -192 0
-183 -193 0
-183 -194 0
-183 -195 0
-184 -185 0
-184 -186 0
-184 -187 0
-184 -188 0
-184 -189 0
-184 -190 0
-184 -191 0
-184 -192 0
-184 -193 0
-184 -194 0
-184 -195 0
-185 -186 0
-185 -187 0
-185 -188 0
-185 -189 0
-185 -190 0
-185 -191 0
-185 -192 0
-185 -193 0
-185 -194 0
-185 -195 0
-186 -187 0
-186 -188 0
-186 -189 0
-186 -190 0
-186 -191 0
-186 -192 0
-186 -193 0
-186 -194 0
-186 -195 0
-187 -188 0
-187 -189 0
-187 -190 0
-187 -191 0
-187 -192 0
-187 -193 0
-187 -194 0
-187 -195 0
-188 -189 0
-188 -190 0
-188 -191 0
-188 -192 0
-188 -193 0
-188 -194 0
-188 -195 0
-189 -190 0
-189 -191 0
-189 -192 0
-189 -193 0
-189 -194 0
-189 -195 0
-190 -191 0
-190 -192 0
-190 -193 0
-190 -194 0
-190 -195 0
-191 -192 0
-191 -193 0
-191 -194 0
-191 -195 0
-192 -193 0
-192 -194 0
-192 -195 0
-193 -194 0
-193 -195 0
-194 -195 0
-538 514 181 0
-539 515 0
-540 516 182 0
-541 517 183 0
-542 518 184 0
-543 519 185 0
-544 520 186 0
-545 521 187 0
-546 522 188 0
-547 523 0
-548 524 189 0
-549 525 190 0
-550 526 0
-551 527 0
-552 528 191 0
-553 529 192 0
-554 530 193 0
-555 531 194 0
-556 532 0
-557 533 0
-558 534 195 0
-559 535 0
-560 536 0
-561 537 0
-196 -197 0
-196 -198 0
-196 -199 0
-196 -200 0
-196 -201 0
-196 -202 0
-196 -203 0
-196 -204 0
-196 -205 0
-196 -206 0
-196 -207 0
-196 -208 0
-196 -209 0
-196 -210 0
-197 -198 0
-197 -199 0
-197 -200 0
-197 -201 0
-197 -202 0
-197 -203 0
-197 -204 0
-197 -205 0
-197 -206 0
-197 -207 0
-197 -208 0
-197 -209 0
-197 -210 0
-198 -199 0
-198 -200 0
-198 -201 0
-198 -202 0
-198 -203 0
-198 -204 0
-198 -205 0
-198 -206 0
-198 -207 0
-198 -208 0
-198 -209 0
-198 -210 0
-199 -200 0
-199 -201 0
-199 -202 0
-199 -203 0
-199 -204 0
-199 -205 0
-199 -206 0
-199 -207 0
-199 -208 0
-199 -209 0
-199 -210 0
-200 -201 0
-200 -202 0
-200 -203 0
-200 -204 0
-200 -205 0
-200 -206 0
-200 -207 0
-200 -208 0
-200 -209 0
-200 -210 0
-201 -202 0
-201 -203 0
-201 -204 0
-201 -205 0
-201 -206 0
-201 -207 0
-201 -208 0
-201 -209 0
-201 -210 0
-202 -203 0
-202 -204 0
-202 -205 0
-202 -206 0
-202 -207 0
-202 -208 0
-202 -209 0
-202 -210 0
-203 -204 0
-203 -205 0
-203 -206 0
-203 -207 0
-203 -208 0
-203 -209 0
-203 -210 0
-204 -205 0
-204 -206 0
-204 -207 0
-204 -208 0
-204 -209 0
-204 -210 0
-205 -206 0
-205 -207 0
-205 -208 0
-205 -209 0
-205 -210 0
-206 -207 0
-206 -208 0
-206 -209 0
-206 -210 0
-207 -208 0
-207 -209 0
-207 -210 0
-208 -209 0
-208 -210 0
-209 -210 0
-562 538 196 0
-563 539 0
-564 540 197 0
-565 541 198 0
-566 542 199 0
-567 543 200 0
-568 544 201 0
-569 545 202 0
-570 546 203 0
-571 547 0
-572 548 204 0
-573 549 205 0
-574 550 0
-575 551 0
-576 552 206 0
-577 553 207 0
-578 554 208 0
-579 555 209 0
-580 556 0
-581 557 0
-582 558 210 0
-583 559 0
-584 560 0
-585 561 0
-211 -212 0
-211 -213 0
-211 -214 0
-211 -215 0
-211 -216 0
-211 -217 0
-211 -218 0
-211 -219 0
-211 -220 0
-211 -221 0
-211 -222 0
-211 -223 0
-211 -224 0
-211 -225 0
-212 -213 0
-212 -214 0
-212 -215 0
-212 -216 0
-212 -217 0
-212 -218 0
-212 -219 0
-212 -220 0
-212 -221 0
-212 -222 0
-212 -223 0
-212 -224 0
-212 -225 0
-213 -214 0
-213 -215 0
-213 -216 0
-213 -217 0
-213 -218 0
-213 -219 0
-213 -220 0
-213 -221 0
-213 -222 0
-213 -223 0
-213 -224 0
-213 -225 0
-214 -215 0
-214 -216 0
-214 -217 0
-214 -218 0
-214 -219 0
-214 -220 0
-214 -221 0
-214 -222 0
-214 -223 0
-214 -224 0
-214 -225 0
-215 -216 0
-215 -217 0
-215 -218 0
-215 -219 0
-215 -220 0
-215 -221 0
-215 -222 0
-215 -223 0
-215 -224 0
-215 -225 0
-216 -217 0
-216 -218 0
-216 -219 0
-216 -220 0
-216 -221 0
-216 -222 0
-216 -223 0
-216 -224 0
-216 -225 0
-217 -218 0
-217 -219 0
-217 -220 0
-217 -221 0
-217 -222 0
-217 -223 0
-217 -224 0
-217 -225 0
-218 -219 0
-218 -220 0
-218 -221 0
-218 -222 0
-218 -223 0
-218 -224 0
-218 -225 0
-219 -220 0
-219 -221 0
-219 -222 0
-219 -223 0
-219 -224 0
-219 -225 0
-220 -221 0
-220 -222 0
-220 -223 0
-220 -224 0
-220 -225 0
-221 -222 0
-221 -223 0
-221 -224 0
-221 -225 0
-222 -223 0
-222 -224 0
-222 -225 0
-223 -224 0
-223 -225 0
-224 -225 0
-586 562 211 0
-587 563 0
-588 564 212 0
-589 565 213 0
-590 566 214 0
-591 567 215 0
-592 568 216 0
-593 569 217 0
-594 570 218 0
-595 571 0
-596 572 219 0
-597 573 220 0
-598 574 0
-599 575 0
-600 576 221 0
-601 577 222 0
-602 578 223 0
-603 579 224 0
-604 580 0
-605 581 0
-606 582 225 0
-607 583 0
-608 584 0
-609 585 0
-226 0
227 0
-228 0
-229 0
-230 0
-231 0
-232 0
-233 0
-234 0
235 0
-236 0
-237 0
238 0
239 0
-240 0
-241 0
-242 0
-243 0
244 0
245 0
-246 0
247 0
248 0
249 0
1 16 31 46 61 76 91 106 121 136 151 166 181 196 211 0
2 17 32 47 62 77 92 107 122 137 152 167 182 197 212 0
3 18 33 48 63 78 93 108 123 138 153 168 183 198 213 0
4 19 34 49 64 79 94 109 124 139 154 169 184 199 214 0
5 20 35 50 65 80 95 110 125 140 155 170 185 200 215 0
6 21 36 51 66 81 96 111 126 141 156 171 186 201 216 0
7 22 37 52 67 82 97 112 127 142 157 172 187 202 217 0
8 23 38 53 68 83 98 113 128 143 158 173 188 203 218 0
9 24 39 54 69 84 99 114 129 144 159 174 189 204 219 0
10 25 40 55 70 85 100 115 130 145 160 175 190 205 220 0
11 26 41 56 71 86 101 116 131 146 161 176 191 206 221 0
12 27 42 57 72 87 102 117 132 147 162 177 192 207 222 0
13 28 43 58 73 88 103 118 133 148 163 178 193 208 223 0
14 29 44 59 74 89 104 119 134 149 164 179 194 209 224 0
15 30 45 60 75 90 105 120 135 150 165 180 195 210 225 0
-1 0
-610 229 0
-610 249 0
-611 229 0
-611 249 0
-612 230 0
-612 246 0
-613 230 0
-613 246 0
-2 610 611 612 613 0
-614 228 0
-614 249 0
-615 228 0
-615 249 0
-616 230 0
-616 247 0
-617 230 0
-617 247 0
-618 231 0
-618 239 0
-619 231 0
-619 239 0
-3 614 615 616 617 618 619 0
-620 227 0
-620 239 0
-621 227 0
-621 239 0
-622 228 0
-622 246 0
-623 228 0
-623 246 0
-624 229 0
-624 247 0
-625 229 0
-625 247 0
-626 232 0
-626 237 0
-627 232 0
-627 237 0
-4 620 621 622 623 624 625 626 627 0
-628 229 0
-628 239 0
-629 229 0
-629 239 0
-5 628 629 0
-630 227 0
-630 235 0
-631 227 0
-631 235 0
-632 230 0
-632 237 0
-633 230 0
-633 237 0
-6 630 631 632 633 0
-634 235 0
-634 238 0
-635 235 0
-635 238 0
-7 634 635 0
-636 235 0
-636 245 0
-637 235 0
-637 245 0
-638 236 0
-638 241 0
-639 236 0
-639 241 0
-8 636 637 638 639 0
-640 234 0
-640 241 0
-641 234 0
-641 241 0
-642 235 0
-642 244 0
-643 235 0
-643 244 0
-9 640 641 642 643 0
-644 230 0
-644 232 0
-645 230 0
-645 232 0
-646 235 0
-646 239 0
-647 235 0
-647 239 0
-10 644 645 646 647 0
-11 0
-648 234 0
-648 236 0
-649 234 0
-649 236 0
-650 242 0
-650 248 0
-651 242 0
-651 248 0
-652 244 0
-652 245 0
-653 244 0
-653 245 0
-12 648 649 650 651 652 653 0
-654 241 0
-654 248 0
-655 241 0
-655 248 0
-656 243 0
-656 249 0
-657 243 0
-657 249 0
-13 654 655 656 657 0
-658 242 0
-658 249 0
-659 242 0
-659 249 0
-14 658 659 0
-660 228 0
-660 230 0
-661 228 0
-661 230 0
-662 247 0
-662 249 0
-663 247 0
-663 249 0
-15 660 661 662 663 0
-16 0
-664 253 0
-664 273 0
-665 253 0
-665 273 0
-666 254 0
-666 270 0
-667 254 0
-667 270 0
-17 664 665 666 667 0
-668 252 0
-668 273 0
-669 252 0
-669 273 0
-670 254 0
-670 271 0
-671 254 0
-671 271 0
-672 255 0
-672 263 0
-673 255 0
-673 263 0
-18 668 669 670 671 672 673 0
-674 251 0
-674 263 0
-675 251 0
-675 263 0
-676 252 0
-676 270 0
-677 252 0
-677 270 0
-678 253 0
-678 271 0
-679 253 0
-679 271 0
-680 256 0
-680 261 0
-681 256 0
-681 261 0
-19 674 675 676 677 678 679 680 681 0
-682 253 0
-682 263 0
-683 253 0
-683 263 0
-20 682 683 0
-684 251 0
-684 259 0
-685 251 0
-685 259 0
-686 254 0
-686 261 0
-687 254 0
-687 261 0
-21 684 685 686 687 0
-688 259 0
-688 262 0
-689 259 0
-689 262 0
-22 688 689 0
-690 259 0
-690 269 0
-691 259 0
-691 269 0
-692 260 0
-692 265 0
-693 260 0
-693 265 0
-23 690 691 692 693 0
-694 258 0
-694 265 0
-695 258 0
-695 265 0
-696 259 0
-696 268 0
-697 259 0
-697 268 0
-24 694 695 696 697 0
-698 254 0
-698 256 0
-699 254 0
-699 256 0
-700 259 0
-700 263 0
-701 259 0
-701 263 0
-25 698 699 700 701 0
-26 0
-702 258 0
-702 260 0
-703 258 0
-703 260 0
-704 266 0
-704 272 0
-705 266 0
-705 272 0
-706 268 0
-706 269 0
-707 268 0
-707 269 0
-27 702 703 704 705 706 707 0
-708 265 0
-708 272 0
-709 265 0
-709 272 0
-710 267 0
-710 273 0
-711 267 0
-711 273 0
-28 708 709 710 711 0
-712 266 0
-712 273 0
-713 266 0
-713 273 0
-29 712 713 0
-714 252 0
-714 254 0
-715 252 0
-715 254 0
-716 271 0
-716 273 0
-717 271 0
-717 273 0
-30 714 715 716 717 0
-31 0
-718 277 0
-718 297 0
-719 277 0
-719 297 0
-720 278 0
-720 294 0
-721 278 0
-721 294 0
-32 718 719 720 721 0
-722 276 0
-722 297 0
-723 276 0
-723 297 0
-724 278 0
-724 295 0
-725 278 0
-725 295 0
-726 279 0
-726 287 0
-727 279 0
-727 287 0
-33 722 723 724 725 726 727 0
-728 275 0
-728 287 0
-729 275 0
-729 287 0
-730 276 0
-730 294 0
-731 276 0
-731 294 0
-732 277 0
-732 295 0
-733 277 0
-733 295 0
-734 280 0
-734 285 0
-735 280 0
-735 285 0
-34 728 729 730 731 732 733 734 735 0
-736 277 0
-736 287 0
-737 277 0
-737 287 0
-35 736 737 0
-738 275 0
-738 283 0
-739 275 0
-739 283 0
-740 278 0
-740 285 0
-741 278 0
-741 285 0
-36 738 739 740 741 0
-742 283 0
-742 286 0
-743 283 0
-743 286 0
-37 742 743 0
-744 283 0
-744 293 0
-745 283 0
-745 293 0
-746 284 0
-746 289 0
-747 284 0
-747 289 0
-38 744 745 746 747 0
-748 282 0
-748 289 0
-749 282 0
-749 289 0
-750 283 0
-750 292 0
-751 283 0
-751 292 0
-39 748 749 750 751 0
-752 278 0
-752 280 0
-753 278 0
-753 280 0
-754 283 0
-754 287 0
-755 283 0
-755 287 0
-40 752 753 754 755 0
-41 0
-756 282 0
-756 284 0
-757 282 0
-757 284 0
-758 290 0
-758 296 0
-759 290 0
-759 296 0
-760 292 0
-760 293 0
-761 292 0
-761 293 0
-42 756 757 758 759 760 761 0
-762 289 0
-762 296 0
-763 289 0
-763 296 0
-764 291 0
-764 297 0
-765 291 0
-765 297 0
-43 762 763 764 765 0
-766 290 0
-766 297 0
-767 290 0
-767 297 0
-44 766 767 0
-768 276 0
-768 278 0
-769 276 0
-769 278 0
-770 295 0
-770 297 0
-771 295 0
-771 297 0
-45 768 769 770 771 0
-46 0
-772 301 0
-772 321 0
-773 301 0
-773 321 0
-774 302 0
-774 318 0
-775 302 0
-775 318 0
-47 772 773 774 775 0
-776 300 0
-776 321 0
-777 300 0
-777 321 0
-778 302 0
-778 319 0
-779 302 0
-779 319 0
-780 303 0
-780 311 0
-781 303 0
-781 311 0
-48 776 777 778 779 780 781 0
-782 299 0
-782 311 0
-783 299 0
-783 311 0
-784 300 0
-784 318 0
-785 300 0
-785 318 0
-786 301 0
-786 319 0
-787 301 0
-787 319 0
-788 304 0
-788 309 0
-789 304 0
-789 309 0
-49 782 783 784 785 786 787 788 789 0
-790 301 0
-790 311 0
-791 301 0
-791 311 0
-50 790 791 0
-792 299 0
-792 307 0
-793 299 0
-793 307 0
-794 302 0
-794 309 0
-795 302 0
-795 309 0
-51 792 793 794 795 0
-796 307 0
-796 310 0
-797 307 0
-797 310 0
-52 796 797 0
-798 307 0
-798 317 0
-799 307 0
-799 317 0
-800 308 0
-800 313 0
-801 308 0
-801 313 0
-53 798 799 800 801 0
-802 306 0
-802 313 0
-803 306 0
-803 313 0
-804 307 0
-804 316 0
-805 307 0
-805 316 0
-54 802 803 804 805 0
-806 302 0
-806 304 0
-807 302 0
-807 304 0
-808 307 0
-808 311 0
-809 307 0
-809 311 0
-55 806 807 808 809 0
-56 0
-810 306 0
-810 308 0
-811 306 0
-811 308 0
-812 314 0
-812 320 0
-813 314 0
-813 320 0
-814 316 0
-814 317 0
-815 316 0
-815 317 0
-57 810 811 812 813 814 815 0
-816 313 0
-816 320 0
-817 313 0
-817 320 0
-818 315 0
-818 321 0
-819 315 0
-819 321 0
-58 816 817 818 819 0
-820 314 0
-820 321 0
-821 314 0
-821 321 0
-59 820 821 0
-822 300 0
-822 302 0
-823 300 0
-823 302 0
-824 319 0
-824 321 0
-825 319 0
-825 321 0
-60 822 823 824 825 0
-61 0
-826 325 0
-826 345 0
-827 325 0
-827 345 0
-828 326 0
-828 342 0
-829 326 0
-829 342 0
-62 826 827 828 829 0
-830 324 0
-830 345 0
-831 324 0
-831 345 0
-832 326 0
-832 343 0
-833 326 0
-833 343 0
-834 327 0
-834 335 0
-835 327 0
-835 335 0
-63 830 831 832 833 834 835 0
-836 323 0
-836 335 0
-837 323 0
-837 335 0
-838 324 0
-838 342 0
-839 324 0
-839 342 0
-840 325 0
-840 343 0
-841 325 0
-841 343 0
-842 328 0
-842 333 0
-843 328 0
-843 333 0
-64 836 837 838 839 840 841 842 843 0
-844 325 0
-844 335 0
-845 325 0
-845 335 0
-65 844 845 0
-846 323 0
-846 331 0
-847 323 0
-847 331 0
-848 326 0
-848 333 0
-849 326 0
-849 333 0
-66 846 847 848 849 0
-850 331 0
-850 334 0
-851 331 0
-851 334 0
-67 850 851 0
-852 331 0
-852 341 0
-853 331 0
-853 341 0
-854 332 0
-854 337 0
-855 332 0
-855 337 0
-68 852 853 854 855 0
-856 330 0
-856 337 0
-857 330 0
-857 337 0
-858 331 0
-858 340 0
-859 331 0
-859 340 0
-69 856 857 858 859 0
-860 326 0
-860 328 0
-861 326 0
-861 328 0
-862 331 0
-862 335 0
-863 331 0
-863 335 0
-70 860 861 862 863 0
-71 0
-864 330 0
-864 332 0
-865 330 0
-865 332 0
-866 338 0
-866 344 0
-867 338 0
-867 344 0
-868 340 0
-868 341 0
-869 340 0
-869 341 0
-72 864 865 866 867 868 869 0
-870 337 0
-870 344 0
-871 337 0
-871 344 0
-872 339 0
-872 345 0
-873 339 0
-873 345 0
-73 870 871 872 873 0
-874 338 0
-874 345 0
-875 338 0
-875 345 0
-74 874 875 0
-876 324 0
-876 326 0
-877 324 0
-877 326 0
-878 343 0
-878 345 0
-879 343 0
-879 345 0
-75 876 877 878 879 0
-76 0
-880 349 0
-880 369 0
-881 349 0
-881 369 0
-882 350 0
-882 366 0
-883 350 0
-883 366 0
-77 880 881 882 883 0
-884 348 0
-884 369 0
-885 348 0
-885 369 0
-886 350 0
-886 367 0
-887 350 0
-887 367 0
-888 351 0
-888 359 0
-889 351 0
-889 359 0
-78 884 885 886 887 888 889 0
-890 347 0
-890 359 0
-891 347 0
-891 359 0
-892 348 0
-892 366 0
-893 348 0
-893 366 0
-894 349 0
-894 367 0
-895 349 0
-895 367 0
-896 352 0
-896 357 0
-897 352 0
-897 357 0
-79 890 891 892 893 894 895 896 897 0
-898 349 0
-898 359 0
-899 349 0
-899 359 0
-80 898 899 0
-900 347 0
-900 355 0
-901 347 0
-901 355 0
-902 350 0
-902 357 0
-903 350 0
-903 357 0
-81 900 901 902 903 0
-904 355 0
-904 358 0
-905 355 0
-905 358 0
-82 904 905 0
-906 355 0
-906 365 0
-907 355 0
-907 365 0
-908 356 0
-908 361 0
-909 356 0
-909 361 0
-83 906 907 908 909 0
-910 354 0
-910 361 0
-911 354 0
-911 361 0
-912 355 0
-912 364 0
-913 355 0
-913 364 0
-84 910 911 912 913 0
-914 350 0
-914 352 0
-915 350 0
-915 352 0
-916 355 0
-916 359 0
-917 355 0
-917 359 0
-85 914 915 916 917 0
-86 0
-918 354 0
-918 356 0
-919 354 0
-919 356 0
-920 362 0
-920 368 0
-921 362 0
-921 368 0
-922 364 0
-922 365 0
-923 364 0
-923 365 0
-87 918 919 920 921 922 923 0
-924 361 0
-924 368 0
-925 361 0
-925 368 0
-926 363 0
-926 369 0
-927 363 0
-927 369 0
-88 924 925 926 927 0
-928 362 0
-928 369 0
-929 362 0
-929 369 0
-89 928 929 0
-930 348 0
-930 350 0
-931 348 0
-931 350 0
-932 367 0
-932 369 0
-933 367 0
-933 369 0
-90 930 931 932 933 0
-91 0
-934 373 0
-934 393 0
-935 373 0
-935 393 0
-936 374 0
-936 390 0
-937 374 0
-937 390 0
-92 934 935 936 937 0
-938 372 0
-938 393 0
-939 372 0
-939 393 0
-940 374 0
-940 391 0
-941 374 0
-941 391 0
-942 375 0
-942 383 0
-943 375 0
-943 383 0
-93 938 939 940 941 942 943 0
-944 371 0
-944 383 0
-945 371 0
-945 383 0
-946 372 0
-946 390 0
-947 372 0
-947 390 0
-948 373 0
-948 391 0
-949 373 0
-949 391 0
-950 376 0
-950 381 0
-951 376 0
-951 381 0
-94 944 945 946 947 948 949 950 951 0
-952 373 0
-952 383 0
-953 373 0
-953 383 0
-95 952 953 0
-954 371 0
-954 379 0
-955 371 0
-955 379 0
-956 374 0
-956 381 0
-957 374 0
-957 381 0
-96 954 955 956 957 0
-958 379 0
-958 382 0
-959 379 0
-959 382 0
-97 958 959 0
-960 379 0
-960 389 0
-961 379 0
-961 389 0
-962 380 0
-962 385 0
-963 380 0
-963 385 0
-98 960 961 962 963 0
-964 378 0
-964 385 0
-965 378 0
-965 385 0
-966 379 0
-966 388 0
-967 379 0
-967 388 0
-99 964 965 966 967 0
-968 374 0
-968 376 0
-969 374 0
-969 376 0
-970 379 0
-970 383 0
-971 379 0
-971 383 0
-100 968 969 970 971 0
-101 0
-972 378 0
-972 380 0
-973 378 0
-973 380 0
-974 386 0
-974 392 0
-975 386 0
-975 392 0
-976 388 0
-976 389 0
-977 388 0
-977 389 0
-102 972 973 974 975 976 977 0
-978 385 0
-978 392 0
-979 385 0
-979 392 0
-980 387 0
-980 393 0
-981 387 0
-981 393 0
-103 978 979 980 981 0
-982 386 0
-982 393 0
-983 386 0
-983 393 0
-104 982 983 0
-984 372 0
-984 374 0
-985 372 0
-985 374 0
-986 391 0
-986 393 0
-987 391 0
-987 393 0
-105 984 985 986 987 0
-106 0
-988 397 0
-988 417 0
-989 397 0
-989 417 0
-990 398 0
-990 414 0
-991 398 0
-991 414 0
-107 988 989 990 991 0
-992 396 0
-992 417 0
-993 396 0
-993 417 0
-994 398 0
-994 415 0
-995 398 0
-995 415 0
-996 399 0
-996 407 0
-997 399 0
-997 407 0
-108 992 993 994 995 996 997 0
-998 395 0
-998 407 0
-999 395 0
-999 407 0
-1000 396 0
-1000 414 0
-1001 396 0
-1001 414 0
-1002 397 0
-1002 415 0
-1003 397 0
-1003 415 0
-1004 400 0
-1004 405 0
-1005 400 0
-1005 405 0
-109 998 999 1000 1001 1002 1003 1004 1005 0
-1006 397 0
-1006 407 0
-1007 397 0
-1007 407 0
-110 1006 1007 0
-1008 395 0
-1008 403 0
-1009 395 0
-1009 403 0
-1010 398 0
-1010 405 0
-1011 398 0
-1011 405 0
-111 1008 1009 1010 1011 0
-1012 403 0
-1012 406 0
-1013 403 0
-1013 406 0
-112 1012 1013 0
-1014 403 0
-1014 413 0
-1015 403 0
-1015 413 0
-1016 404 0
-1016 409 0
-1017 404 0
-1017 409 0
-113 1014 1015 1016 1017 0
-1018 402 0
-1018 409 0
-1019 402 0
-1019 409 0
-1020 403 0
-1020 412 0
-1021 403 0
-1021 412 0
-114 1018 1019 1020 1021 0
-1022 398 0
-1022 400 0
-1023 398 0
-1023 400 0
-1024 403 0
-1024 407 0
-1025 403 0
-1025 407 0
-115 1022 1023 1024 1025 0
-116 0
-1026 402 0
-1026 404 0
-1027 402 0
-1027 404 0
-1028 410 0
-1028 416 0
-1029 410 0
-1029 416 0
-1030 412 0
-1030 413 0
-1031 412 0
-1031 413 0
-117 1026 1027 1028 1029 1030 1031 0
-1032 409 0
-1032 416 0
-1033 409 0
-1033 416 0
-1034 411 0
-1034 417 0
-1035 411 0
-1035 417 0
-118 1032 1033 1034 1035 0
-1036 410 0
-1036 417 0
-1037 410 0
-1037 417 0
-119 1036 1037 0
-1038 396 0
-1038 398 0
-1039 396 0
-1039 398 0
-1040 415 0
-1040 417 0
-1041 415 0
-1041 417 0
-120 1038 1039 1040 1041 0
-121 0
-1042 421 0
-1042 441 0
-1043 421 0
-1043 441 0
-1044 422 0
-1044 438 0
-1045 422 0
-1045 438 0
-122 1042 1043 1044 1045 0
-1046 420 0
-1046 441 0
-1047 420 0
-1047 441 0
-1048 422 0
-1048 439 0
-1049 422 0
-1049 439 0
-1050 423 0
-1050 431 0
-1051 423 0
-1051 431 0
-123 1046 1047 1048 1049 1050 1051 0
-1052 419 0
-1052 431 0
-1053 419 0
-1053 431 0
-1054 420 0
-1054 438 0
-1055 420 0
-1055 438 0
-1056 421 0
-1056 439 0
-1057 421 0
-1057 439 0
-1058 424 0
-1058 429 0
-1059 424 0
-1059 429 0
-124 1052 1053 1054 1055 1056 1057 1058 1059 0
-1060 421 0
-1060 431 0
-1061 421 0
-1061 431 0
-125 1060 1061 0
-1062 419 0
-1062 427 0
-1063 419 0
-1063 427 0
-1064 422 0
-1064 429 0
-1065 422 0
-1065 429 0
-126 1062 1063 1064 1065 0
-1066 427 0
-1066 430 0
-1067 427 0
-1067 430 0
-127 1066 1067 0
-1068 427 0
-1068 437 0
-1069 427 0
-1069 437 0
-1070 428 0
-1070 433 0
-1071 428 0
-1071 433 0
-128 1068 1069 1070 1071 0
-1072 426 0
-1072 433 0
-1073 426 0
-1073 433 0
-1074 427 0
-1074 436 0
-1075 427 0
-1075 436 0
-129 1072 1073 1074 1075 0
-1076 422 0
-1076 424 0
-1077 422 0
-1077 424 0
-1078 427 0
-1078 431 0
-1079 427 0
-1079 431 0
-130 1076 1077 1078 1079 0
-131 0
-1080 426 0
-1080 428 0
-1081 426 0
-1081 428 0
-1082 434 0
-1082 440 0
-1083 434 0
-1083 440 0
-1084 436 0
-1084 437 0
-1085 436 0
-1085 437 0
-132 1080 1081 1082 1083 1084 1085 0
-1086 433 0
-1086 440 0
-1087 433 0
-1087 440 0
-1088 435 0
-1088 441 0
-1089 435 0
-1089 441 0
-133 1086 1087 1088 1089 0
-1090 434 0
-1090 441 0
-1091 434 0
-1091 441 0
-134 1090 1091 0
-1092 420 0
-1092 422 0
-1093 420 0
-1093 422 0
-1094 439 0
-1094 441 0
-1095 439 0
-1095 441 0
-135 1092 1093 1094 1095 0
-136 0
-1096 445 0
-1096 465 0
-1097 445 0
-1097 465 0
-1098 446 0
-1098 462 0
-1099 446 0
-1099 462 0
-137 1096 1097 1098 1099 0
-1100 444 0
-1100 465 0
-1101 444 0
-1101 465 0
-1102 446 0
-1102 463 0
-1103 446 0
-1103 463 0
-1104 447 0
-1104 455 0
-1105 447 0
-1105 455 0
-138 1100 1101 1102 1103 1104 1105 0
-1106 443 0
-1106 455 0
-1107 443 0
-1107 455 0
-1108 444 0
-1108 462 0
-1109 444 0
-1109 462 0
-1110 445 0
-1110 463 0
-1111 445 0
-1111 463 0
-1112 448 0
-1112 453 0
-1113 448 0
-1113 453 0
-139 1106 1107 1108 1109 1110 1111 1112 1113 0
-1114 445 0
-1114 455 0
-1115 445 0
-1115 455 0
-140 1114 1115 0
-1116 443 0
-1116 451 0
-1117 443 0
-1117 451 0
-1118 446 0
-1118 453 0
-1119 446 0
-1119 453 0
-141 1116 1117 1118 1119 0
-1120 451 0
-1120 454 0
-1121 451 0
-1121 454 0
-142 1120 1121 0
-1122 451 0
-1122 461 0
-1123 451 0
-1123 461 0
-1124 452 0
-1124 457 0
-1125 452 0
-1125 457 0
-143 1122 1123 1124 1125 0
-1126 450 0
-1126 457 0
-1127 450 0
-1127 457 0
-1128 451 0
-1128 460 0
-1129 451 0
-1129 460 0
-144 1126 1127 1128 1129 0
-1130 446 0
-1130 448 0
-1131 446 0
-1131 448 0
-1132 451 0
-1132 455 0
-1133 451 0
-1133 455 0
-145 1130 1131 1132 1133 0
-146 0
-1134 450 0
-1134 452 0
-1135 450 0
-1135 452 0
-1136 458 0
-1136 464 0
-1137 458 0
-1137 464 0
-1138 460 0
-1138 461 0
-1139 460 0
-1139 461 0
-147 1134 1135 1136 1137 1138 1139 0
-1140 457 0
-1140 464 0
-1141 457 0
-1141 464 0
-1142 459 0
-1142 465 0
-1143 459 0
-1143 465 0
-148 1140 1141 1142 1143 0
-1144 458 0
-1144 465 0
-1145 458 0
-1145 465 0
-149 1144 1145 0
-1146 444 0
-1146 446 0
-1147 444 0
-1147 446 0
-1148 463 0
-1148 465 0
-1149 463 0
-1149 465 0
-150 1146 1147 1148 1149 0
-151 0
-1150 469 0
-1150 489 0
-1151 469 0
-1151 489 0
-1152 470 0
-1152 486 0
-1153 470 0
-1153 486 0
-152 1150 1151 1152 1153 0
-1154 468 0
-1154 489 0
-1155 468 0
-1155 489 0
-1156 470 0
-1156 487 0
-1157 470 0
-1157 487 0
-1158 471 0
-1158 479 0
-1159 471 0
-1159 479 0
-153 1154 1155 1156 1157 1158 1159 0
-1160 467 0
-1160 479 0
-1161 467 0
-1161 479 0
-1162 468 0
-1162 486 0
-1163 468 0
-1163 486 0
-1164 469 0
-1164 487 0
-1165 469 0
-1165 487 0
-1166 472 0
-1166 477 0
-1167 472 0
-1167 477 0
-154 1160 1161 1162 1163 1164 1165 1166 1167 0
-1168 469 0
-1168 479 0
-1169 469 0
-1169 479 0
-155 1168 1169 0
-1170 467 0
-1170 475 0
-1171 467 0
-1171 475 0
-1172 470 0
-1172 477 0
-1173 470 0
-1173 477 0
-156 1170 1171 1172 1173 0
-1174 475 0
-1174 478 0
-1175 475 0
-1175 478 0
-157 1174 1175 0
-1176 475 0
-1176 485 0
-1177 475 0
-1177 485 0
-1178 476 0
-1178 481 0
-1179 476 0
-1179 481 0
-158 1176 1177 1178 1179 0
-1180 474 0
-1180 481 0
-1181 474 0
-1181 481 0
-1182 475 0
-1182 484 0
-1183 475 0
-1183 484 0
-159 1180 1181 1182 1183 0
-1184 470 0
-1184 472 0
-1185 470 0
-1185 472 0
-1186 475 0
-1186 479 0
-1187 475 0
-1187 479 0
-160 1184 1185 1186 1187 0
-161 0
-1188 474 0
-1188 476 0
-1189 474 0
-1189 476 0
-1190 482 0
-1190 488 0
-1191 482 0
-1191 488 0
-1192 484 0
-1192 485 0
-1193 484 0
-1193 485 0
-162 1188 1189 1190 1191 1192 1193 0
-1194 481 0
-1194 488 0
-1195 481 0
-1195 488 0
-1196 483 0
-1196 489 0
-1197 483 0
-1197 489 0
-163 1194 1195 1196 1197 0
-1198 482 0
-1198 489 0
-1199 482 0
-1199 489 0
-164 1198 1199 0
-1200 468 0
-1200 470 0
-1201 468 0
-1201 470 0
-1202 487 0
-1202 489 0
-1203 487 0
-1203 489 0
-165 1200 1201 1202 1203 0
-166 0
-1204 493 0
-1204 513 0
-1205 493 0
-1205 513 0
-1206 494 0
-1206 510 0
-1207 494 0
-1207 510 0
-167 1204 1205 1206 1207 0
-1208 492 0
-1208 513 0
-1209 492 0
-1209 513 0
-1210 494 0
-1210 511 0
-1211 494 0
-1211 511 0
-1212 495 0
-1212 503 0
-1213 495 0
-1213 503 0
-168 1208 1209 1210 1211 1212 1213 0
-1214 491 0
-1214 503 0
-1215 491 0
-1215 503 0
-1216 492 0
-1216 510 0
-1217 492 0
-1217 510 0
-1218 493 0
-1218 511 0
-1219 493 0
-1219 511 0
-1220 496 0
-1220 501 0
-1221 496 0
-1221 501 0
-169 1214 1215 1216 1217 1218 1219 1220 1221 0
-1222 493 0
-1222 503 0
-1223 493 0
-1223 503 0
-170 1222 1223 0
-1224 491 0
-1224 499 0
-1225 491 0
-1225 499 0
-1226 494 0
-1226 501 0
-1227 494 0
-1227 501 0
-171 1224 1225 1226 1227 0
-1228 499 0
-1228 502 0
-1229 499 0
-1229 502 0
-172 1228 1229 0
-1230 499 0
-1230 509 0
-1231 499 0
-1231 509 0
-1232 500 0
-1232 505 0
-1233 500 0
-1233 505 0
-173 1230 1231 1232 1233 0
-1234 498 0
-1234 505 0
-1235 498 0
-1235 505 0
-1236 499 0
-1236 508 0
-1237 499 0
-1237 508 0
-174 1234 1235 1236 1237 0
-1238 494 0
-1238 496 0
-1239 494 0
-1239 496 0
-1240 499 0
-1240 503 0
-1241 499 0
-1241 503 0
-175 1238 1239 1240 1241 0
-176 0
-1242 498 0
-1242 500 0
-1243 498 0
-1243 500 0
-1244 506 0
-1244 512 0
-1245 506 0
-1245 512 0
-1246 508 0
-1246 509 0
-1247 508 0
-1247 509 0
-177 1242 1243 1244 1245 1246 1247 0
-1248 505 0
-1248 512 0
-1249 505 0
-1249 512 0
-1250 507 0
-1250 513 0
-1251 507 0
-1251 513 0
-178 1248 1249 1250 1251 0
-1252 506 0
-1252 513 0
-1253 506 0
-1253 513 0
-179 1252 1253 0
-1254 492 0
-1254 494 0
-1255 492 0
-1255 494 0
-1256 511 0
-1256 513 0
-1257 511 0
-1257 513 0
-180 1254 1255 1256 1257 0
-181 0
-1258 517 0
-1258 537 0
-1259 517 0
-1259 537 0
-1260 518 0
-1260 534 0
-1261 518 0
-1261 534 0
-182 1258 1259 1260 1261 0
-1262 516 0
-1262 537 0
-1263 516 0
-1263 537 0
-1264 518 0
-1264 535 0
-1265 518 0
-1265 535 0
-1266 519 0
-1266 527 0
-1267 519 0
-1267 527 0
-183 1262 1263 1264 1265 1266 1267 0
-1268 515 0
-1268 527 0
-1269 515 0
-1269 527 0
-1270 516 0
-1270 534 0
-1271 516 0
-1271 534 0
-1272 517 0
-1272 535 0
-1273 517 0
-1273 535 0
-1274 520 0
-1274 525 0
-1275 520 0
-1275 525 0
-184 1268 1269 1270 1271 1272 1273 1274 1275 0
-1276 517 0
-1276 527 0
-1277 517 0
-1277 527 0
-185 1276 1277 0
-1278 515 0
-1278 523 0
-1279 515 0
-1279 523 0
-1280 518 0
-1280 525 0
-1281 518 0
-1281 525 0
-186 1278 1279 1280 1281 0
-1282 523 0
-1282 526 0
-1283 523 0
-1283 526 0
-187 1282 1283 0
-1284 523 0
-1284 533 0
-1285 523 0
-1285 533 0
-1286 524 0
-1286 529 0
-1287 524 0
-1287 529 0
-188 1284 1285 1286 1287 0
-1288 522 0
-1288 529 0
-1289 522 0
-1289 529 0
-1290 523 0
-1290 532 0
-1291 523 0
-1291 532 0
-189 1288 1289 1290 1291 0
-1292 518 0
-1292 520 0
-1293 518 0
-1293 520 0
-1294 523 0
-1294 527 0
-1295 523 0
-1295 527 0
-190 1292 1293 1294 1295 0
-191 0
-1296 522 0
-1296 524 0
-1297 522 0
-1297 524 0
-1298 530 0
-1298 536 0
-1299 530 0
-1299 536 0
-1300 532 0
-1300 533 0
-1301 532 0
-1301 533 0
-192 1296 1297 1298 1299 1300 1301 0
-1302 529 0
-1302 536 0
-1303 529 0
-1303 536 0
-1304 531 0
-1304 537 0
-1305 531 0
-1305 537 0
-193 1302 1303 1304 1305 0
-1306 530 0
-1306 537 0
-1307 530 0
-1307 537 0
-194 1306 1307 0
-1308 516 0
-1308 518 0
-1309 516 0
-1309 518 0
-1310 535 0
-1310 537 0
-1311 535 0
-1311 537 0
-195 1308 1309 1310 1311 0
-196 0
-1312 541 0
-1312 561 0
-1313 541 0
-1313 561 0
-1314 542 0
-1314 558 0
-1315 542 0
-1315 558 0
-197 1312 1313 1314 1315 0
-1316 540 0
-1316 561 0
-1317 540 0
-1317 561 0
-1318 542 0
-1318 559 0
-1319 542 0
-1319 559 0
-1320 543 0
-1320 551 0
-1321 543 0
-1321 551 0
-198 1316 1317 1318 1319 1320 1321 0
-1322 539 0
-1322 551 0
-1323 539 0
-1323 551 0
-1324 540 0
-1324 558 0
-1325 540 0
-1325 558 0
-1326 541 0
-1326 559 0
-1327 541 0
-1327 559 0
-1328 544 0
-1328 549 0
-1329 544 0
-1329 549 0
-199 1322 1323 1324 1325 1326 1327 1328 1329 0
-1330 541 0
-1330 551 0
-1331 541 0
-1331 551 0
-200 1330 1331 0
-1332 539 0
-1332 547 0
-1333 539 0
-1333 547 0
-1334 542 0
-1334 549 0
-1335 542 0
-1335 549 0
-201 1332 1333 1334 1335 0
-1336 547 0
-1336 550 0
-1337 547 0
-1337 550 0
-202 1336 1337 0
-1338 547 0
-1338 557 0
-1339 547 0
-1339 557 0
-1340 548 0
-1340 553 0
-1341 548 0
-1341 553 0
-203 1338 1339 1340 1341 0
-1342 546 0
-1342 553 0
-1343 546 0
-1343 553 0
-1344 547 0
-1344 556 0
-1345 547 0
-1345 556 0
-204 1342 1343 1344 1345 0
-1346 542 0
-1346 544 0
-1347 542 0
-1347 544 0
-1348 547 0
-1348 551 0
-1349 547 0
-1349 551 0
-205 1346 1347 1348 1349 0
-206 0
-1350 546 0
-1350 548 0
-1351 546 0
-1351 548 0
-1352 554 0
-1352 560 0
-1353 554 0
-1353 560 0
-1354 556 0
-1354 557 0
-1355 556 0
-1355 557 0
-207 1350 1351 1352 1353 1354 1355 0
-1356 553 0
-1356 560 0
-1357 553 0
-1357 560 0
-1358 555 0
-1358 561 0
-1359 555 0
-1359 561 0
-208 1356 1357 1358 1359 0
-1360 554 0
-1360 561 0
-1361 554 0
-1361 561 0
-209 1360 1361 0
-1362 540 0
-1362 542 0
-1363 540 0
-1363 542 0
-1364 559 0
-1364 561 0
-1365 559 0
-1365 561 0
-210 1362 1363 1364 1365 0
-211 0
-1366 565 0
-1366 585 0
-1367 565 0
-1367 585 0
-1368 566 0
-1368 582 0
-1369 566 0
-1369 582 0
-212 1366 1367 1368 1369 0
-1370 564 0
-1370 585 0
-1371 564 0
-1371 585 0
-1372 566 0
-1372 583 0
-1373 566 0
-1373 583 0
-1374 567 0
-1374 575 0
-1375 567 0
-1375 575 0
-213 1370 1371 1372 1373 1374 1375 0
-1376 563 0
-1376 575 0
-1377 563 0
-1377 575 0
-1378 564 0
-1378 582 0
-1379 564 0
-1379 582 0
-1380 565 0
-1380 583 0
-1381 565 0
-1381 583 0
-1382 568 0
-1382 573 0
-1383 568 0
-1383 573 0
-214 1376 1377 1378 1379 1380 1381 1382 1383 0
-1384 565 0
-1384 575 0
-1385 565 0
-1385 575 0
-215 1384 1385 0
-1386 563 0
-1386 571 0
-1387 563 0
-1387 571 0
-1388 566 0
-1388 573 0
-1389 566 0
-1389 573 0
-216 1386 1387 1388 1389 0
-1390 571 0
-1390 574 0
-1391 571 0
-1391 574 0
-217 1390 1391 0
-1392 571 0
-1392 581 0
-1393 571 0
-1393 581 0
-1394 572 0
-1394 577 0
-1395 572 0
-1395 577 0
-218 1392 1393 1394 1395 0
-1396 570 0
-1396 577 0
-1397 570 0
-1397 577 0
-1398 571 0
-1398 580 0
-1399 571 0
-1399 580 0
-219 1396 1397 1398 1399 0
-1400 566 0
-1400 568 0
-1401 566 0
-1401 568 0
-1402 571 0
-1402 575 0
-1403 571 0
-1403 575 0
-220 1400 1401 1402 1403 0
-221 0
-1404 570 0
-1404 572 0
-1405 570 0
-1405 572 0
-1406 578 0
-1406 584 0
-1407 578 0
-1407 584 0
-1408 580 0
-1408 581 0
-1409 580 0
-1409 581 0
-222 1404 1405 1406 1407 1408 1409 0
-1410 577 0
-1410 584 0
-1411 577 0
-1411 584 0
-1412 579 0
-1412 585 0
-1413 579 0
-1413 585 0
-223 1410 1411 1412 1413 0
-1414 578 0
-1414 585 0
-1415 578 0
-1415 585 0
-224 1414 1415 0
-1416 564 0
-1416 566 0
-1417 564 0
-1417 566 0
-1418 583 0
-1418 585 0
-1419 583 0
-1419 585 0
-225 1416 1417 1418 1419 0
