p cnf 1404 3789
-1 -2 0
-1 -3 0
-1 -4 0
-1 -5 0
-1 -6 0
-1 -7 0
-1 -8 0
-1 -9 0
-1 -10 0
-1 -11 0
-1 -12 0
-1 -13 0
-1 -14 0
-1 -15 0
-2 -3 0
-2 -4 0
-2 -5 0
-2 -6 0
-2 -7 0
-2 -8 0
-2 -9 0
-2 -10 0
-2 -11 0
-2 -12 0
-2 -13 0
-2 -14 0
-2 -15 0
-3 -4 0
-3 -5 0
-3 -6 0
-3 -7 0
-3 -8 0
-3 -9 0
-3 -10 0
-3 -11 0
-3 -12 0
-3 -13 0
-3 -14 0
-3 -15 0
-4 -5 0
-4 -6 0
-4 -7 0
-4 -8 0
-4 -9 0
-4 -10 0
-4 -11 0
-4 -12 0
-4 -13 0
-4 -14 0
-4 -15 0
-5 -6 0
-5 -7 0
-5 -8 0
-5 -9 0
-5 -10 0
-5 -11 0
-5 -12 0
-5 -13 0
-5 -14 0
-5 -15 0
-6 -7 0
-6 -8 0
-6 -9 0
-6 -10 0
-6 -11 0
-6 -12 0
-6 -13 0
-6 -14 0
-6 -15 0
-7 -8 0
-7 -9 0
-7 -10 0
-7 -11 0
-7 -12 0
-7 -13 0
-7 -14 0
-7 -15 0
-8 -9 0
-8 -10 0
-8 -11 0
-8 -12 0
-8 -13 0
-8 -14 0
-8 -15 0
-9 -10 0
-9 -11 0
-9 -12 0
-9 -13 0
-9 -14 0
-9 -15 0
-10 -11 0
-10 -12 0
-10 -13 0
-10 -14 0
-10 -15 0
-11 -12 0
-11 -13 0
-11 -14 0
-11 -15 0
-12 -13 0
-12 -14 0
-12 -15 0
-13 -14 0
-13 -15 0
-14 -15 0
-250 226 1 0
-251 227 2 0
-252 228 0
-253 229 3 0
-254 230 4 0
-255 231 5 0
-256 232 6 0
-257 233 7 0
-258 234 8 0
-259 235 0
-260 236 9 0
-261 237 10 0
-262 238 0
-263 239 0
-264 240 11 0
-265 241 12 0
-266 242 13 0
-267 243 14 0
-268 244 0
-269 245 0
-270 246 15 0
-271 247 0
-272 248 0
-273 249 0
-16 -17 0
-16 -18 0
-16 -19 0
-16 -20 0
-16 -21 0
-16 -22 0
-16 -23 0
-16 -24 0
-16 -25 0
-16 -26 0
-16 -27 0
-16 -28 0
-16 -29 0
-16 -30 0
-17 -18 0
-17 -19 0
-17 -20 0
-17 -21 0
-17 -22 0
-17 -23 0
-17 -24 0
-17 -25 0
-17 -26 0
-17 -27 0
-17 -28 0
-17 -29 0
-17 -30 0
-18 -19 0
-18 -20 0
-18 -21 0
-18 -22 0
-18 -23 0
-18 -24 0
-18 -25 0
-18 -26 0
-18 -27 0
-18 -28 0
-18 -29 0
-18 -30 0
-19 -20 0
-19 -21 0
-19 -22 0
-19 -23 0
-19 -24 0
-19 -25 0
-19 -26 0
-19 -27 0
-19 -28 0
-19 -29 0
-19 -30 0
-20 -21 0
-20 -22 0
-20 -23 0
-20 -24 0
-20 -25 0
-20 -26 0
-20 -27 0
-20 -28 0
-20 -29 0
-20 -30 0
-21 -22 0
-21 -23 0
-21 -24 0
-21 -25 0
-21 -26 0
-21 -27 0
-21 -28 0
-21 -29 0
-21 -30 0
-22 -23 0
-22 -24 0
-22 -25 0
-22 -26 0
-22 -27 0
-22 -28 0
-22 -29 0
-22 -30 0
-23 -24 0
-23 -25 0
-23 -26 0
-23 -27 0
-23 -28 0
-23 -29 0
-23 -30 0
-24 -25 0
-24 -26 0
-24 -27 0
-24 -28 0
-24 -29 0
-24 -30 0
-25 -26 0
-25 -27 0
-25 -28 0
-25 -29 0
-25 -30 0
-26 -27 0
-26 -28 0
-26 -29 0
-26 -30 0
-27 -28 0
-27 -29 0
-27 -30 0
-28 -29 0
-28 -30 0
-29 -30 0
-274 250 16 0
-275 251 17 0
-276 252 0
-277 253 18 0
-278 254 19 0
-279 255 20 0
-280 256 21 0
-281 257 22 0
-282 258 23 0
-283 259 0
-284 260 24 0
-285 261 25 0
-286 262 0
-287 263 0
-288 264 26 0
-289 265 27 0
-290 266 28 0
-291 267 29 0
-292 268 0
-293 269 0
-294 270 30 0
-295 271 0
-296 272 0
-297 273 0
-31 -32 0
-31 -33 0
-31 -34 0
-31 -35 0
-31 -36 0
-31 -37 0
-31 -38 0
-31 -39 0
-31 -40 0
-31 -41 0
-31 -42 0
-31 -43 0
-31 -44 0
-31 -45 0
-32 -33 0
-32 -34 0
-32 -35 0
-32 -36 0
-32 -37 0
-32 -38 0
-32 -39 0
-32 -40 0
-32 -41 0
-32 -42 0
-32 -43 0
-32 -44 0
-32 -45 0
-33 -34 0
-33 -35 0
-33 -36 0
-33 -37 0
-33 -38 0
-33 -39 0
-33 -40 0
-33 -41 0
-33 -42 0
-33 -43 0
-33 -44 0
-33 -45 0
-34 -35 0
-34 -36 0
-34 -37 0
-34 -38 0
-34 -39 0
-34 -40 0
-34 -41 0
-34 -42 0
-34 -43 0
-34 -44 0
-34 -45 0
-35 -36 0
-35 -37 0
-35 -38 0
-35 -39 0
-35 -40 0
-35 -41 0
-35 -42 0
-35 -43 0
-35 -44 0
-35 -45 0
-36 -37 0
-36 -38 0
-36 -39 0
-36 -40 0
-36 -41 0
-36 -42 0
-36 -43 0
-36 -44 0
-36 -45 0
-37 -38 0
-37 -39 0
-37 -40 0
-37 -41 0
-37 -42 0
-37 -43 0
-37 -44 0
-37 -45 0
-38 -39 0
-38 -40 0
-38 -41 0
-38 -42 0
-38 -43 0
-38 -44 0
-38 -45 0
-39 -40 0
-39 -41 0
-39 -42 0
-39 -43 0
-39 -44 0
-39 -45 0
-40 -41 0
-40 -42 0
-40 -43 0
-40 -44 0
-40 -45 0
-41 -42 0
-41 -43 0
-41 -44 0
-41 -45 0
-42 -43 0
-42 -44 0
-42 -45 0
-43 -44 0
-43 -45 0
-44 -45 0
-298 274 31 0
-299 275 32 0
-300 276 0
-301 277 33 0
-302 278 34 0
-303 279 35 0
-304 280 36 0
-305 281 37 0
-306 282 38 0
-307 283 0
-308 284 39 0
-309 285 40 0
-310 286 0
-311 287 0
-312 288 41 0
-313 289 42 0
-314 290 43 0
-315 291 44 0
-316 292 0
-317 293 0
-318 294 45 0
-319 295 0
-320 296 0
-321 297 0
-46 -47 0
-46 -48 0
-46 -49 0
-46 -50 0
-46 -51 0
-46 -52 0
-46 -53 0
-46 -54 0
-46 -55 0
-46 -56 0
-46 -57 0
-46 -58 0
-46 -59 0
-46 -60 0
-47 -48 0
-47 -49 0
-47 -50 0
-47 -51 0
-47 -52 0
-47 -53 0
-47 -54 0
-47 -55 0
-47 -56 0
-47 -57 0
-47 -58 0
-47 -59 0
-47 -60 0
-48 -49 0
-48 -50 0
-48 -51 0
-48 -52 0
-48 -53 0
-48 -54 0
-48 -55 0
-48 -56 0
-48 -57 0
-48 -58 0
-48 -59 0
-48 -60 0
-49 -50 0
-49 -51 0
-49 -52 0
-49 -53 0
-49 -54 0
-49 -55 0
-49 -56 0
-49 -57 0
-49 -58 0
-49 -59 0
-49 -60 0
-50 -51 0
-50 -52 0
-50 -53 0
-50 -54 0
-50 -55 0
-50 -56 0
-50 -57 0
-50 -58 0
-50 -59 0
-50 -60 0
-51 -52 0
-51 -53 0
-51 -54 0
-51 -55 0
-51 -56 0
-51 -57 0
-51 -58 0
-51 -59 0
-51 -60 0
-52 -53 0
-52 -54 0
-52 -55 0
-52 -56 0
-52 -57 0
-52 -58 0
-52 -59 0
-52 -60 0
-53 -54 0
-53 -55 0
-53 -56 0
-53 -57 0
-53 -58 0
-53 -59 0
-53 -60 0
-54 -55 0
-54 -56 0
-54 -57 0
-54 -58 0
-54 -59 0
-54 -60 0
-55 -56 0
-55 -57 0
-55 -58 0
-55 -59 0
-55 -60 0
-56 -57 0
-56 -58 0
-56 -59 0
-56 -60 0
-57 -58 0
-57 -59 0
-57 -60 0
-58 -59 0
-58 -60 0
-59 -60 0
-322 298 46 0
-323 299 47 0
-324 300 0
-325 301 48 0
-326 302 49 0
-327 303 50 0
-328 304 51 0
-329 305 52 0
-330 306 53 0
-331 307 0
-332 308 54 0
-333 309 55 0
-334 310 0
-335 311 0
-336 312 56 0
-337 313 57 0
-338 314 58 0
-339 315 59 0
-340 316 0
-341 317 0
-342 318 60 0
-343 319 0
-344 320 0
-345 321 0
-61 -62 0
-61 -63 0
-61 -64 0
-61 -65 0
-61 -66 0
-61 -67 0
-61 -68 0
-61 -69 0
-61 -70 0
-61 -71 0
-61 -72 0
-61 -73 0
-61 -74 0
-61 -75 0
-62 -63 0
-62 -64 0
-62 -65 0
-62 -66 0
-62 -67 0
-62 -68 0
-62 -69 0
-62 -70 0
-62 -71 0
-62 -72 0
-62 -73 0
-62 -74 0
-62 -75 0
-63 -64 0
-63 -65 0
-63 -66 0
-63 -67 0
-63 -68 0
-63 -69 0
-63 -70 0
-63 -71 0
-63 -72 0
-63 -73 0
-63 -74 0
-63 -75 0
-64 -65 0
-64 -66 0
-64 -67 0
-64 -68 0
-64 -69 0
-64 -70 0
-64 -71 0
-64 -72 0
-64 -73 0
-64 -74 0
-64 -75 0
-65 -66 0
-65 -67 0
-65 -68 0
-65 -69 0
-65 -70 0
-65 -71 0
-65 -72 0
-65 -73 0
-65 -74 0
-65 -75 0
-66 -67 0
-66 -68 0
-66 -69 0
-66 -70 0
-66 -71 0
-66 -72 0
-66 -73 0
-66 -74 0
-66 -75 0
-67 -68 0
-67 -69 0
-67 -70 0
-67 -71 0
-67 -72 0
-67 -73 0
-67 -74 0
-67 -75 0
-68 -69 0
-68 -70 0
-68 -71 0
-68 -72 0
-68 -73 0
-68 -74 0
-68 -75 0
-69 -70 0
-69 -71 0
-69 -72 0
-69 -73 0
-69 -74 0
-69 -75 0
-70 -71 0
-70 -72 0
-70 -73 0
-70 -74 0
-70 -75 0
-71 -72 0
-71 -73 0
-71 -74 0
-71 -75 0
-72 -73 0
-72 -74 0
-72 -75 0
-73 -74 0
-73 -75 0
-74 -75 0
-346 322 61 0
-347 323 62 0
-348 324 0
-349 325 63 0
-350 326 64 0
-351 327 65 0
-352 328 66 0
-353 329 67 0
-354 330 68 0
-355 331 0
-356 332 69 0
-357 333 70 0
-358 334 0
-359 335 0
-360 336 71 0
-361 337 72 0
-362 338 73 0
-363 339 74 0
-364 340 0
-365 341 0
-366 342 75 0
-367 343 0
-368 344 0
-369 345 0
-76 -77 0
-76 -78 0
-76 -79 0
-76 -80 0
-76 -81 0
-76 -82 0
-76 -83 0
-76 -84 0
-76 -85 0
-76 -86 0
-76 -87 0
-76 -88 0
-76 -89 0
-76 -90 0
-77 -78 0
-77 -79 0
-77 -80 0
-77 -81 0
-77 -82 0
-77 -83 0
-77 -84 0
-77 -85 0
-77 -86 0
-77 -87 0
-77 -88 0
-77 -89 0
-77 -90 0
-78 -79 0
-78 -80 0
-78 -81 0
-78 -82 0
-78 -83 0
-78 -84 0
-78 -85 0
-78 -86 0
-78 -87 0
-78 -88 0
-78 -89 0
-78 -90 0
-79 -80 0
-79 -81 0
-79 -82 0
-79 -83 0
-79 -84 0
-79 -85 0
-79 -86 0
-79 -87 0
-79 -88 0
-79 -89 0
-79 -90 0
-80 -81 0
-80 -82 0
-80 -83 0
-80 -84 0
-80 -85 0
-80 -86 0
-80 -87 0
-80 -88 0
-80 -89 0
-80 -90 0
-81 -82 0
-81 -83 0
-81 -84 0
-81 -85 0
-81 -86 0
-81 -87 0
-81 -88 0
-81 -89 0
-81 -90 0
-82 -83 0
-82 -84 0
-82 -85 0
-82 -86 0
-82 -87 0
-82 -88 0
-82 -89 0
-82 -90 0
-83 -84 0
-83 -85 0
-83 -86 0
-83 -87 0
-83 -88 0
-83 -89 0
-83 -90 0
-84 -85 0
-84 -86 0
-84 -87 0
-84 -88 0
-84 -89 0
-84 -90 0
-85 -86 0
-85 -87 0
-85 -88 0
-85 -89 0
-85 -90 0
-86 -87 0
-86 -88 0
-86 -89 0
-86 -90 0
-87 -88 0
-87 -89 0
-87 -90 0
-88 -89 0
-88 -90 0
-89 -90 0
-370 346 76 0
-371 347 77 0
-372 348 0
-373 349 78 0
-374 350 79 0
-375 351 80 0
-376 352 81 0
-377 353 82 0
-378 354 83 0
-379 355 0
-380 356 84 0
-381 357 85 0
-382 358 0
-383 359 0
-384 360 86 0
-385 361 87 0
-386 362 88 0
-387 363 89 0
-388 364 0
-389 365 0
-390 366 90 0
-391 367 0
-392 368 0
-393 369 0
-91 -92 0
-91 -93 0
-91 -94 0
-91 -95 0
-91 -96 0
-91 -97 0
-91 -98 0
-91 -99 0
-91 -100 0
-91 -101 0
-91 -102 0
-91 -103 0
-91 -104 0
-91 -105 0
-92 -93 0
-92 -94 0
-92 -95 0
-92 -96 0
-92 -97 0
-92 -98 0
-92 -99 0
-92 -100 0
-92 -101 0
-92 -102 0
-92 -103 0
-92 -104 0
-92 -105 0
-93 -94 0
-93 -95 0
-93 -96 0
-93 -97 0
-93 -98 0
-93 -99 0
-93 -100 0
-93 -101 0
-93 -102 0
-93 -103 0
-93 -104 0
-93 -105 0
-94 -95 0
-94 -96 0
-94 -97 0
-94 -98 0
-94 -99 0
-94 -100 0
-94 -101 0
-94 -102 0
-94 -103 0
-94 -104 0
-94 -105 0
-95 -96 0
-95 -97 0
-95 -98 0
-95 -99 0
-95 -100 0
-95 -101 0
-95 -102 0
-95 -103 0
-95 -104 0
-95 -105 0
-96 -97 0
-96 -98 0
-96 -99 0
-96 -100 0
-96 -101 0
-96 -102 0
-96 -103 0
-96 -104 0
-96 -105 0
-97 -98 0
-97 -99 0
-97 -100 0
-97 -101 0
-97 -102 0
-97 -103 0
-97 -104 0
-97 -105 0
-98 -99 0
-98 -100 0
-98 -101 0
-98 -102 0
-98 -103 0
-98 -104 0
-98 -105 0
-99 -100 0
-99 -101 0
-99 -102 0
-99 -103 0
-99 -104 0
-99 -105 0
-100 -101 0
-100 -102 0
-100 -103 0
-100 -104 0
-100 -105 0
-101 -102 0
-101 -103 0
-101 -104 0
-101 -105 0
-102 -103 0
-102 -104 0
-102 -105 0
-103 -104 0
-103 -105 0
-104 -105 0
-394 370 91 0
-395 371 92 0
-396 372 0
-397 373 93 0
-398 374 94 0
-399 375 95 0
-400 376 96 0
-401 377 97 0
-402 378 98 0
-403 379 0
-404 380 99 0
-405 381 100 0
-406 382 0
-407 383 0
-408 384 101 0
-409 385 102 0
-410 386 103 0
-411 387 104 0
-412 388 0
-413 389 0
-414 390 105 0
-415 391 0
-416 392 0
-417 393 0
-106 -107 0
-106 -108 0
-106 -109 0
-106 -110 0
-106 -111 0
-106 -112 0
-106 -113 0
-106 -114 0
-106 -115 0
-106 -116 0
-106 -117 0
-106 -118 0
-106 -119 0
-106 -120 0
-107 -108 0
-107 -109 0
-107 -110 0
-107 -111 0
-107 -112 0
-107 -113 0
-107 -114 0
-107 -115 0
-107 -116 0
-107 -117 0
-107 -118 0
-107 -119 0
-107 -120 0
-108 -109 0
-108 -110 0
-108 -111 0
-108 -112 0
-108 -113 0
-108 -114 0
-108 -115 0
-108 -116 0
-108 -117 0
-108 -118 0
-108 -119 0
-108 -120 0
-109 -110 0
-109 -111 0
-109 -112 0
-109 -113 0
-109 -114 0
-109 -115 0
-109 -116 0
-109 -117 0
-109 -118 0
-109 -119 0
-109 -120 0
-110 -111 0
-110 -112 0
-110 -113 0
-110 -114 0
-110 -115 0
-110 -116 0
-110 -117 0
-110 -118 0
-110 -119 0
-110 -120 0
-111 -112 0
-111 -113 0
-111 -114 0
-111 -115 0
-111 -116 0
-111 -117 0
-111 -118 0
-111 -119 0
-111 -120 0
-112 -113 0
-112 -114 0
-112 -115 0
-112 -116 0
-112 -117 0
-112 -118 0
-112 -119 0
-112 -120 0
-113 -114 0
-113 -115 0
-113 -116 0
-113 -117 0
-113 -118 0
-113 -119 0
-113 -120 0
-114 -115 0
-114 -116 0
-114 -117 0
-114 -118 0
-114 -119 0
-114 -120 0
-115 -116 0
-115 -117 0
-115 -118 0
-115 -119 0
-115 -120 0
-116 -117 0
-116 -118 0
-116 -119 0
-116 -120 0
-117 -118 0
-117 -119 0
-117 -120 0
-118 -119 0
-118 -120 0
-119 -120 0
-418 394 106 0
-419 395 107 0
-420 396 0
-421 397 108 0
-422 398 109 0
-423 399 110 0
-424 400 111 0
-425 401 112 0
-426 402 113 0
-427 403 0
-428 404 114 0
-429 405 115 0
-430 406 0
-431 407 0
-432 408 116 0
-433 409 117 0
-434 410 118 0
-435 411 119 0
-436 412 0
-437 413 0
-438 414 120 0
-439 415 0
-440 416 0
-441 417 0
-121 -122 0
-121 -123 0
-121 -124 0
-121 -125 0
-121 -126 0
-121 -127 0
-121 -128 0
-121 -129 0
-121 -130 0
-121 -131 0
-121 -132 0
-121 -133 0
-121 -134 0
-121 -135 0
-122 -123 0
-122 -124 0
-122 -125 0
-122 -126 0
-122 -127 0
-122 -128 0
-122 -129 0
-122 -130 0
-122 -131 0
-122 -132 0
-122 -133 0
-122 -134 0
-122 -135 0
-123 -124 0
-123 -125 0
-123 -126 0
-123 -127 0
-123 -128 0
-123 -129 0
-123 -130 0
-123 -131 0
-123 -132 0
-123 -133 0
-123 -134 0
-123 -135 0
-124 -125 0
-124 -126 0
-124 -127 0
-124 -128 0
-124 -129 0
-124 -130 0
-124 -131 0
-124 -132 0
-124 -133 0
-124 -134 0
-124 -135 0
-125 -126 0
-125 -127 0
-125 -128 0
-125 -129 0
-125 -130 0
-125 -131 0
-125 -132 0
-125 -133 0
-125 -134 0
-125 -135 0
-126 -127 0
-126 -128 0
-126 -129 0
-126 -130 0
-126 -131 0
-126 -132 0
-126 -133 0
-126 -134 0
-126 -135 0
-127 -128 0
-127 -129 0
-127 -130 0
-127 -131 0
-127 -132 0
-127 -133 0
-127 -134 0
-127 -135 0
-128 -129 0
-128 -130 0
-128 -131 0
-128 -132 0
-128 -133 0
-128 -134 0
-128 -135 0
-129 -130 0
-129 -131 0
-129 -132 0
-129 -133 0
-129 -134 0
-129 -135 0
-130 -131 0
-130 -132 0
-130 -133 0
-130 -134 0
-130 -135 0
-131 -132 0
-131 -133 0
-131 -134 0
-131 -135 0
-132 -133 0
-132 -134 0
-132 -135 0
-133 -134 0
-133 -135 0
-134 -135 0
-442 418 121 0
-443 419 122 0
-444 420 0
-445 421 123 0
-446 422 124 0
-447 423 125 0
-448 424 126 0
-449 425 127 0
-450 426 128 0
-451 427 0
-452 428 129 0
-453 429 130 0
-454 430 0
-455 431 0
-456 432 131 0
-457 433 132 0
-458 434 133 0
-459 435 134 0
-460 436 0
-461 437 0
-462 438 135 0
-463 439 0
-464 440 0
-465 441 0
-136 -137 0
-136 -138 0
-136 -139 0
-136 -140 0
-136 -141 0
-136 -142 0
-136 -143 0
-136 -144 0
-136 -145 0
-136 -146 0
-136 -147 0
-136 -148 0
-136 -149 0
-136 -150 0
-137 -138 0
-137 -139 0
-137 -140 0
-137 -141 0
-137 -142 0
-137 -143 0
-137 -144 0
-137 -145 0
-137 -146 0
-137 -147 0
-137 -148 0
-137 -149 0
-137 -150 0
-138 -139 0
-138 -140 0
-138 -141 0
-138 -142 0
-138 -143 0
-138 -144 0
-138 -145 0
-138 -146 0
-138 -147 0
-138 -148 0
-138 -149 0
-138 -150 0
-139 -140 0
-139 -141 0
-139 -142 0
-139 -143 0
-139 -144 0
-139 -145 0
-139 -146 0
-139 -147 0
-139 -148 0
-139 -149 0
-139 -150 0
-140 -141 0
-140 -142 0
-140 -143 0
-140 -144 0
-140 -145 0
-140 -146 0
-140 -147 0
-140 -148 0
-140 -149 0
-140 -150 0
-141 -142 0
-141 -143 0
-141 -144 0
-141 -145 0
-141 -146 0
-141 -147 0
-141 -148 0
-141 -149 0
-141 -150 0
-142 -143 0
-142 -144 0
-142 -145 0
-142 -146 0
-142 -147 0
-142 -148 0
-142 -149 0
-142 -150 0
-143 -144 0
-143 -145 0
-143 -146 0
-143 -147 0
-143 -148 0
-143 -149 0
-143 -150 0
-144 -145 0
-144 -146 0
-144 -147 0
-144 -148 0
-144 -149 0
-144 -150 0
-145 -146 0
-145 -147 0
-145 -148 0
-145 -149 0
-145 -150 0
-146 -147 0
-146 -148 0
-146 -149 0
-146 -150 0
-147 -148 0
-147 -149 0
-147 -150 0
-148 -149 0
-148 -150 0
-149 -150 0
-466 442 136 0
-467 443 137 0
-468 444 0
-469 445 138 0
-470 446 139 0
-471 447 140 0
-472 448 141 0
-473 449 142 0
-474 450 143 0
-475 451 0
-476 452 144 0
-477 453 145 0
-478 454 0
-479 455 0
-480 456 146 0
-481 457 147 0
-482 458 148 0
-483 459 149 0
-484 460 0
-485 461 0
-486 462 150 0
-487 463 0
-488 464 0
-489 465 0
-151 -152 0
-151 -153 0
-151 -154 0
-151 -155 0
-151 -156 0
-151 -157 0
-151 -158 0
-151 -159 0
-151 -160 0
-151 -161 0
-151 -162 0
-151 -163 0
-151 -164 0
-151 -165 0
-152 -153 0
-152 -154 0
-152 -155 0
-152 -156 0
-152 -157 0
-152 -158 0
-152 -159 0
-152 -160 0
-152 -161 0
-152 -162 0
-152 -163 0
-152 -164 0
-152 -165 0
-153 -154 0
-153 -155 0
-153 -156 0
-153 -157 0
-153 -158 0
-153 -159 0
-153 -160 0
-153 -161 0
-153 -162 0
-153 -163 0
-153 -164 0
-153 -165 0
-154 -155 0
-154 -156 0
-154 -157 0
-154 -158 0
-154 -159 0
-154 -160 0
-154 -161 0
-154 -162 0
-154 -163 0
-154 -164 0
-154 -165 0
-155 -156 0
-155 -157 0
-155 -158 0
-155 -159 0
-155 -160 0
-155 -161 0
-155 -162 0
-155 -163 0
-155 -164 0
-155 -165 0
-156 -157 0
-156 -158 0
-156 -159 0
-156 -160 0
-156 -161 0
-156 -162 0
-156 -163 0
-156 -164 0
-156 -165 0
-157 -158 0
-157 -159 0
-157 -160 0
-157 -161 0
-157 -162 0
-157 -163 0
-157 -164 0
-157 -165 0
-158 -159 0
-158 -160 0
-158 -161 0
-158 -162 0
-158 -163 0
-158 -164 0
-158 -165 0
-159 -160 0
-159 -161 0
-159 -162 0
-159 -163 0
-159 -164 0
-159 -165 0
-160 -161 0
-160 -162 0
-160 -163 0
-160 -164 0
-160 -165 0
-161 -162 0
-161 -163 0
-161 -164 0
-161 -165 0
-162 -163 0
-162 -164 0
-162 -165 0
-163 -164 0
-163 -165 0
-164 -165 0
-490 466 151 0
-491 467 152 0
-492 468 0
-493 469 153 0
-494 470 154 0
-495 471 155 0
-496 472 156 0
-497 473 157 0
-498 474 158 0
-499 475 0
-500 476 159 0
-501 477 160 0
-502 478 0
-503 479 0
-504 480 161 0
-505 481 162 0
-506 482 163 0
-507 483 164 0
-508 484 0
-509 485 0
-510 486 165 0
-511 487 0
-512 488 0
-513 489 0
-166 -167 0
-166 -168 0
-166 -169 0
-166 -170 0
-166 -171 0
-166 -172 0
-166 -173 0
-166 -174 0
-166 -175 0
-166 -176 0
-166 -177 0
-166 -178 0
-166 -179 0
-166 -180 0
-167 -168 0
-167 -169 0
-167 -170 0
-167 -171 0
-167 -172 0
-167 -173 0
-167 -174 0
-167 -175 0
-167 -176 0
-167 -177 0
-167 -178 0
-167 -179 0
-167 -180 0
-168 -169 0
-168 -170 0
-168 -171 0
-168 -172 0
-168 -173 0
-168 -174 0
-168 -175 0
-168 -176 0
-168 -177 0
-168 -178 0
-168 -179 0
-168 -180 0
-169 -170 0
-169 -171 0
-169 -172 0
-169 -173 0
-169 -174 0
-169 -175 0
-169 -176 0
-169 -177 0
-169 -178 0
-169 -179 0
-169 -180 0
-170 -171 0
-170 -172 0
-170 -173 0
-170 -174 0
-170 -175 0
-170 -176 0
-170 -177 0
-170 -178 0
-170 -179 0
-170 -180 0
-171 -172 0
-171 -173 0
-171 -174 0
-171 -175 0
-171 -176 0
-171 -177 0
-171 -178 0
-171 -179 0
-171 -180 0
-172 -173 0
-172 -174 0
-172 -175 0
-172 -176 0
-172 -177 0
-172 -178 0
-172 -179 0
-172 -180 0
-173 -174 0
-173 -175 0
-173 -176 0
-173 -177 0
-173 -178 0
-173 -179 0
-173 -180 0
-174 -175 0
-174 -176 0
-174 -177 0
-174 -178 0
-174 -179 0
-174 -180 0
-175 -176 0
-175 -177 0
-175 -178 0
-175 -179 0
-175 -180 0
-176 -177 0
-176 -178 0
-176 -179 0
-176 -180 0
-177 -178 0
-177 -179 0
-177 -180 0
-178 -179 0
-178 -180 0
-179 -180 0
-514 490 166 0
-515 491 167 0
-516 492 0
-517 493 168 0
-518 494 169 0
-519 495 170 0
-520 496 171 0
-521 497 172 0
-522 498 173 0
-523 499 0
-524 500 174 0
-525 501 175 0
-526 502 0
-527 503 0
-528 504 176 0
-529 505 177 0
-530 506 178 0
-531 507 179 0
-532 508 0
-533 509 0
-534 510 180 0
-535 511 0
-536 512 0
-537 513 0
-181 -182 0
-181 -183 0
-181 -184 0
-181 -185 0
-181 -186 0
-181 -187 0
-181 -188 0
-181 -189 0
-181 -190 0
-181 -191 0
-181 -192 0
-181 -193 0
-181 -194 0
-181 -195 0
-182 -183 0
-182 -184 0
-182 -185 0
-182 -186 0
-182 -187 0
-182 -188 0
-182 -189 0
-182 -190 0
-182 -191 0
-182 -192 0
-182 -193 0
-182 -194 0
-182 -195 0
-183 -184 0
-183 -185 0
-183 -186 0
-183 -187 0
-183 -188 0
-183 -189 0
-183 -190 0
-183 -191 0
-183 -192 0
-183 -193 0
-183 -194 0
-183 -195 0
-184 -185 0
-184 -186 0
-184 -187 0
-184 -188 0
-184 -189 0
-184 -190 0
-184 -191 0
-184 -192 0
-184 -193 0
-184 -194 0
-184 -195 0
-185 -186 0
-185 -187 0
-185 -188 0
-185 -189 0
-185 -190 0
-185 -191 0
-185 -192 0
-185 -193 0
-185 -194 0
-185 -195 0
-186 -187 0
-186 -188 0
-186 -189 0
-186 -190 0
-186 -191 0
-186 -192 0
-186 -193 0
-186 -194 0
-186 -195 0
-187 -188 0
-187 -189 0
-187 -190 0
-187 -191 0
-187 -192 0
-187 -193 0
-187 -194 0
-187 -195 0
-188 -189 0
-188 -190 0
-188 -191 0
-188 -192 0
-188 -193 0
-188 -194 0
-188 -195 0
-189 -190 0
-189 -191 0
-189 -192 0
-189 -193 0
-189 -194 0
-189 -195 0
-190 -191 0
-190 -192 0
-190 -193 0
-190 -194 0
-190 -195 0
-191 -192 0
-191 -193 0
-191 -194 0
-191 -195 0
-192 -193 0
-192 -194 0
-192 -195 0
-193 -194 0
-193 -195 0
-194 -195 0
-538 514 181 0
-539 515 182 0
-540 516 0
-541 517 183 0
-542 518 184 0
-543 519 185 0
-544 520 186 0
-545 521 187 0
-546 522 188 0
-547 523 0
-548 524 189 0
-549 525 190 0
-550 526 0
-551 527 0
-552 528 191 0
-553 529 192 0
-554 530 193 0
-555 531 194 0
-556 532 0
-557 533 0
-558 534 195 0
-559 535 0
-560 536 0
-561 537 0
-196 -197 0
-196 -198 0
-196 -199 0
-196 -200 0
-196 -201 0
-196 -202 0
-196 -203 0
-196 -204 0
-196 -205 0
-196 -206 0
-196 -207 0
-196 -208 0
-196 -209 0
-196 -210 0
-197 -198 0
-197 -199 0
-197 -200 0
-197 -201 0
-197 -202 0
-197 -203 0
-197 -204 0
-197 -205 0
-197 -206 0
-197 -207 0
-197 -208 0
-197 -209 0
-197 -210 0
-198 -199 0
-198 -200 0
-198 -201 0
-198 -202 0
-198 -203 0
-198 -204 0
-198 -205 0
-198 -206 0
-198 -207 0
-198 -208 0
-198 -209 0
-198 -210 0
-199 -200 0
-199 -201 0
-199 -202 0
-199 -203 0
-199 -204 0
-199 -205 0
-199 -206 0
-199 -207 0
-199 -208 0
-199 -209 0
-199 -210 0
-200 -201 0
-200 -202 0
-200 -203 0
-200 -204 0
-200 -205 0
-200 -206 0
-200 -207 0
-200 -208 0
-200 -209 0
-200 -210 0
-201 -202 0
-201 -203 0
-201 -204 0
-201 -205 0
-201 -206 0
-201 -207 0
-201 -208 0
-201 -209 0
-201 -210 0
-202 -203 0
-202 -204 0
-202 -205 0
-202 -206 0
-202 -207 0
-202 -208 0
-202 -209 0
-202 -210 0
-203 -204 0
-203 -205 0
-203 -206 0
-203 -207 0
-203 -208 0
-203 -209 0
-203 -210 0
-204 -205 0
-204 -206 0
-204 -207 0
-204 -208 0
-204 -209 0
-204 -210 0
-205 -206 0
-205 -207 0
-205 -208 0
-205 -209 0
-205 -210 0
-206 -207 0
-206 -208 0
-206 -209 0
-206 -210 0
-207 -208 0
-207 -209 0
-207 -210 0
-208 -209 0
-208 -210 0
-209 -210 0
-562 538 196 0
-563 539 197 0
-564 540 0
-565 541 198 0
-566 542 199 0
-567 543 200 0
-568 544 201 0
-569 545 202 0
-570 546 203 0
-571 547 0
-572 548 204 0
-573 549 205 0
-574 550 0
-575 551 0
-576 552 206 0
-577 553 207 0
-578 554 208 0
-579 555 209 0
-580 556 0
-581 557 0
-582 558 210 0
-583 559 0
-584 560 0
-585 561 0
-211 -212 0
-211 -213 0
-211 -214 0
-211 -215 0
-211 -216 0
-211 -217 0
-211 -218 0
-211 -219 0
-211 -220 0
-211 -221 0
-211 -222 0
-211 -223 0
-211 -224 0
-211 -225 0
-212 -213 0
-212 -214 0
-212 -215 0
-212 -216 0
-212 -217 0
-212 -218 0
-212 -219 0
-212 -220 0
-212 -221 0
-212 -222 0
-212 -223 0
-212 -224 0
-212 -225 0
-213 -214 0
-213 -215 0
-213 -216 0
-213 -217 0
-213 -218 0
-213 -219 0
-213 -220 0
-213 -221 0
-213 -222 0
-213 -223 0
-213 -224 0
-213 -225 0
-214 -215 0
-214 -216 0
-214 -217 0
-214 -218 0
-214 -219 0
-214 -220 0
-214 -221 0
-214 -222 0
-214 -223 0
-214 -224 0
-214 -225 0
-215 -216 0
-215 -217 0
-215 -218 0
-215 -219 0
-215 -220 0
-215 -221 0
-215 -222 0
-215 -223 0
-215 -224 0
-215 -225 0
-216 -217 0
-216 -218 0
-216 -219 0
-216 -220 0
-216 -221 0
-216 -222 0
-216 -223 0
-216 -224 0
-216 -225 0
-217 -218 0
-217 -219 0
-217 -220 0
-217 -221 0
-217 -222 0
-217 -223 0
-217 -224 0
-217 -225 0
-218 -219 0
-218 -220 0
-218 -221 0
-218 -222 0
-218 -223 0
-218 -224 0
-218 -225 0
-219 -220 0
-219 -221 0
-219 -222 0
-219 -223 0
-219 -224 0
-219 -225 0
-220 -221 0
-220 -222 0
-220 -223 0
-220 -224 0
-220 -225 0
-221 -222 0
-221 -223 0
-221 -224 0
-221 -225 0
-222 -223 0
-222 -224 0
-222 -225 0
-223 -224 0
-223 -225 0
-224 -225 0
-586 562 211 0
-587 563 212 0
-588 564 0
-589 565 213 0
-590 566 214 0
-591 567 215 0
-592 568 216 0
-593 569 217 0
-594 570 218 0
-595 571 0
-596 572 219 0
-597 573 220 0
-598 574 0
-599 575 0
-600 576 221 0
-601 577 222 0
-602 578 223 0
-603 579 224 0
-604 580 0
-605 581 0
-606 582 225 0
-607 583 0
-608 584 0
-609 585 0
-226 0
-227 0
228 0
-229 0
-230 0
-231 0
-232 0
-233 0
-234 0
235 0
-236 0
-237 0
238 0
239 0
-240 0
-241 0
-242 0
-243 0
244 0
245 0
-246 0
247 0
248 0
249 0
1 16 31 46 61 76 91 106 121 136 151 166 181 196 211 0
2 17 32 47 62 77 92 107 122 137 152 167 182 197 212 0
3 18 33 48 63 78 93 108 123 138 153 168 183 198 213 0
4 19 34 49 64 79 94 109 124 139 154 169 184 199 214 0
5 20 35 50 65 80 95 110 125 140 155 170 185 200 215 0
6 21 36 51 66 81 96 111 126 141 156 171 186 201 216 0
7 22 37 52 67 82 97 112 127 142 157 172 187 202 217 0
8 23 38 53 68 83 98 113 128 143 158 173 188 203 218 0
9 24 39 54 69 84 99 114 129 144 159 174 189 204 219 0
10 25 40 55 70 85 100 115 130 145 160 175 190 205 220 0
11 26 41 56 71 86 101 116 131 146 161 176 191 206 221 0
12 27 42 57 72 87 102 117 132 147 162 177 192 207 222 0
13 28 43 58 73 88 103 118 133 148 163 178 193 208 223 0
14 29 44 59 74 89 104 119 134 149 164 179 194 209 224 0
15 30 45 60 75 90 105 120 135 150 165 180 195 210 225 0
-610 227 0
-610 227 0
-1 610 0
-611 226 0
-611 227 0
-612 226 0
-612 227 0
-2 611 612 0
-613 230 0
-613 249 0
-614 230 0
-614 249 0
-615 231 0
-615 246 0
-616 231 0
-616 246 0
-3 613 614 615 616 0
-617 229 0
-617 249 0
-618 229 0
-618 249 0
-619 231 0
-619 247 0
-620 231 0
-620 247 0
-4 617 618 619 620 0
-621 228 0
-621 239 0
-622 228 0
-622 239 0
-623 229 0
-623 246 0
-624 229 0
-624 246 0
-625 230 0
-625 247 0
-626 230 0
-626 247 0
-627 232 0
-627 237 0
-628 232 0
-628 237 0
-5 621 622 623 624 625 626 627 628 0
-629 228 0
-629 235 0
-630 228 0
-630 235 0
-631 231 0
-631 237 0
-632 231 0
-632 237 0
-6 629 630 631 632 0
-633 235 0
-633 238 0
-634 235 0
-634 238 0
-7 633 634 0
-635 235 0
-635 245 0
-636 235 0
-636 245 0
-637 236 0
-637 241 0
-638 236 0
-638 241 0
-8 635 636 637 638 0
-639 234 0
-639 241 0
-640 234 0
-640 241 0
-641 235 0
-641 244 0
-642 235 0
-642 244 0
-9 639 640 641 642 0
-643 231 0
-643 232 0
-644 231 0
-644 232 0
-645 235 0
-645 239 0
-646 235 0
-646 239 0
-10 643 644 645 646 0
-11 0
-647 234 0
-647 236 0
-648 234 0
-648 236 0
-649 242 0
-649 248 0
-650 242 0
-650 248 0
-651 244 0
-651 245 0
-652 244 0
-652 245 0
-12 647 648 649 650 651 652 0
-653 241 0
-653 248 0
-654 241 0
-654 248 0
-655 243 0
-655 249 0
-656 243 0
-656 249 0
-13 653 654 655 656 0
-657 242 0
-657 249 0
-658 242 0
-658 249 0
-14 657 658 0
-659 229 0
-659 231 0
-660 229 0
-660 231 0
-661 247 0
-661 249 0
-662 247 0
-662 249 0
-15 659 660 661 662 0
-663 251 0
-663 251 0
-16 663 0
-664 250 0
-664 251 0
-665 250 0
-665 251 0
-17 664 665 0
-666 254 0
-666 273 0
-667 254 0
-667 273 0
-668 255 0
-668 270 0
-669 255 0
-669 270 0
-18 666 667 668 669 0
-670 253 0
-670 273 0
-671 253 0
-671 273 0
-672 255 0
-672 271 0
-673 255 0
-673 271 0
-19 670 671 672 673 0
-674 252 0
-674 263 0
-675 252 0
-675 263 0
-676 253 0
-676 270 0
-677 253 0
-677 270 0
-678 254 0
-678 271 0
-679 254 0
-679 271 0
-680 256 0
-680 261 0
-681 256 0
-681 261 0
-20 674 675 676 677 678 679 680 681 0
-682 252 0
-682 259 0
-683 252 0
-683 259 0
-684 255 0
-684 261 0
-685 255 0
-685 261 0
-21 682 683 684 685 0
-686 259 0
-686 262 0
-687 259 0
-687 262 0
-22 686 687 0
-688 259 0
-688 269 0
-689 259 0
-689 269 0
-690 260 0
-690 265 0
-691 260 0
-691 265 0
-23 688 689 690 691 0
-692 258 0
-692 265 0
-693 258 0
-693 265 0
-694 259 0
-694 268 0
-695 259 0
-695 268 0
-24 692 693 694 695 0
-696 255 0
-696 256 0
-697 255 0
-697 256 0
-698 259 0
-698 263 0
-699 259 0
-699 263 0
-25 696 697 698 699 0
-26 0
-700 258 0
-700 260 0
-701 258 0
-701 260 0
-702 266 0
-702 272 0
-703 266 0
-703 272 0
-704 268 0
-704 269 0
-705 268 0
-705 269 0
-27 700 701 702 703 704 705 0
-706 265 0
-706 272 0
-707 265 0
-707 272 0
-708 267 0
-708 273 0
-709 267 0
-709 273 0
-28 706 707 708 709 0
-710 266 0
-710 273 0
-711 266 0
-711 273 0
-29 710 711 0
-712 253 0
-712 255 0
-713 253 0
-713 255 0
-714 271 0
-714 273 0
-715 271 0
-715 273 0
-30 712 713 714 715 0
-716 275 0
-716 275 0
-31 716 0
-717 274 0
-717 275 0
-718 274 0
-718 275 0
-32 717 718 0
-719 278 0
-719 297 0
-720 278 0
-720 297 0
-721 279 0
-721 294 0
-722 279 0
-722 294 0
-33 719 720 721 722 0
-723 277 0
-723 297 0
-724 277 0
-724 297 0
-725 279 0
-725 295 0
-726 279 0
-726 295 0
-34 723 724 725 726 0
-727 276 0
-727 287 0
-728 276 0
-728 287 0
-729 277 0
-729 294 0
-730 277 0
-730 294 0
-731 278 0
-731 295 0
-732 278 0
-732 295 0
-733 280 0
-733 285 0
-734 280 0
-734 285 0
-35 727 728 729 730 731 732 733 734 0
-735 276 0
-735 283 0
-736 276 0
-736 283 0
-737 279 0
-737 285 0
-738 279 0
-738 285 0
-36 735 736 737 738 0
-739 283 0
-739 286 0
-740 283 0
-740 286 0
-37 739 740 0
-741 283 0
-741 293 0
-742 283 0
-742 293 0
-743 284 0
-743 289 0
-744 284 0
-744 289 0
-38 741 742 743 744 0
-745 282 0
-745 289 0
-746 282 0
-746 289 0
-747 283 0
-747 292 0
-748 283 0
-748 292 0
-39 745 746 747 748 0
-749 279 0
-749 280 0
-750 279 0
-750 280 0
-751 283 0
-751 287 0
-752 283 0
-752 287 0
-40 749 750 751 752 0
-41 0
-753 282 0
-753 284 0
-754 282 0
-754 284 0
-755 290 0
-755 296 0
-756 290 0
-756 296 0
-757 292 0
-757 293 0
-758 292 0
-758 293 0
-42 753 754 755 756 757 758 0
-759 289 0
-759 296 0
-760 289 0
-760 296 0
-761 291 0
-761 297 0
-762 291 0
-762 297 0
-43 759 760 761 762 0
-763 290 0
-763 297 0
-764 290 0
-764 297 0
-44 763 764 0
-765 277 0
-765 279 0
-766 277 0
-766 279 0
-767 295 0
-767 297 0
-768 295 0
-768 297 0
-45 765 766 767 768 0
-769 299 0
-769 299 0
-46 769 0
-770 298 0
-770 299 0
-771 298 0
-771 299 0
-47 770 771 0
-772 302 0
-772 321 0
-773 302 0
-773 321 0
-774 303 0
-774 318 0
-775 303 0
-775 318 0
-48 772 773 774 775 0
-776 301 0
-776 321 0
-777 301 0
-777 321 0
-778 303 0
-778 319 0
-779 303 0
-779 319 0
-49 776 777 778 779 0
-780 300 0
-780 311 0
-781 300 0
-781 311 0
-782 301 0
-782 318 0
-783 301 0
-783 318 0
-784 302 0
-784 319 0
-785 302 0
-785 319 0
-786 304 0
-786 309 0
-787 304 0
-787 309 0
-50 780 781 782 783 784 785 786 787 0
-788 300 0
-788 307 0
-789 300 0
-789 307 0
-790 303 0
-790 309 0
-791 303 0
-791 309 0
-51 788 789 790 791 0
-792 307 0
-792 310 0
-793 307 0
-793 310 0
-52 792 793 0
-794 307 0
-794 317 0
-795 307 0
-795 317 0
-796 308 0
-796 313 0
-797 308 0
-797 313 0
-53 794 795 796 797 0
-798 306 0
-798 313 0
-799 306 0
-799 313 0
-800 307 0
-800 316 0
-801 307 0
-801 316 0
-54 798 799 800 801 0
-802 303 0
-802 304 0
-803 303 0
-803 304 0
-804 307 0
-804 311 0
-805 307 0
-805 311 0
-55 802 803 804 805 0
-56 0
-806 306 0
-806 308 0
-807 306 0
-807 308 0
-808 314 0
-808 320 0
-809 314 0
-809 320 0
-810 316 0
-810 317 0
-811 316 0
-811 317 0
-57 806 807 808 809 810 811 0
-812 313 0
-812 320 0
-813 313 0
-813 320 0
-814 315 0
-814 321 0
-815 315 0
-815 321 0
-58 812 813 814 815 0
-816 314 0
-816 321 0
-817 314 0
-817 321 0
-59 816 817 0
-818 301 0
-818 303 0
-819 301 0
-819 303 0
-820 319 0
-820 321 0
-821 319 0
-821 321 0
-60 818 819 820 821 0
-822 323 0
-822 323 0
-61 822 0
-823 322 0
-823 323 0
-824 322 0
-824 323 0
-62 823 824 0
-825 326 0
-825 345 0
-826 326 0
-826 345 0
-827 327 0
-827 342 0
-828 327 0
-828 342 0
-63 825 826 827 828 0
-829 325 0
-829 345 0
-830 325 0
-830 345 0
-831 327 0
-831 343 0
-832 327 0
-832 343 0
-64 829 830 831 832 0
-833 324 0
-833 335 0
-834 324 0
-834 335 0
-835 325 0
-835 342 0
-836 325 0
-836 342 0
-837 326 0
-837 343 0
-838 326 0
-838 343 0
-839 328 0
-839 333 0
-840 328 0
-840 333 0
-65 833 834 835 836 837 838 839 840 0
-841 324 0
-841 331 0
-842 324 0
-842 331 0
-843 327 0
-843 333 0
-844 327 0
-844 333 0
-66 841 842 843 844 0
-845 331 0
-845 334 0
-846 331 0
-846 334 0
-67 845 846 0
-847 331 0
-847 341 0
-848 331 0
-848 341 0
-849 332 0
-849 337 0
-850 332 0
-850 337 0
-68 847 848 849 850 0
-851 330 0
-851 337 0
-852 330 0
-852 337 0
-853 331 0
-853 340 0
-854 331 0
-854 340 0
-69 851 852 853 854 0
-855 327 0
-855 328 0
-856 327 0
-856 328 0
-857 331 0
-857 335 0
-858 331 0
-858 335 0
-70 855 856 857 858 0
-71 0
-859 330 0
-859 332 0
-860 330 0
-860 332 0
-861 338 0
-861 344 0
-862 338 0
-862 344 0
-863 340 0
-863 341 0
-864 340 0
-864 341 0
-72 859 860 861 862 863 864 0
-865 337 0
-865 344 0
-866 337 0
-866 344 0
-867 339 0
-867 345 0
-868 339 0
-868 345 0
-73 865 866 867 868 0
-869 338 0
-869 345 0
-870 338 0
-870 345 0
-74 869 870 0
-871 325 0
-871 327 0
-872 325 0
-872 327 0
-873 343 0
-873 345 0
-874 343 0
-874 345 0
-75 871 872 873 874 0
-875 347 0
-875 347 0
-76 875 0
-876 346 0
-876 347 0
-877 346 0
-877 347 0
-77 876 877 0
-878 350 0
-878 369 0
-879 350 0
-879 369 0
-880 351 0
-880 366 0
-881 351 0
-881 366 0
-78 878 879 880 881 0
-882 349 0
-882 369 0
-883 349 0
-883 369 0
-884 351 0
-884 367 0
-885 351 0
-885 367 0
-79 882 883 884 885 0
-886 348 0
-886 359 0
-887 348 0
-887 359 0
-888 349 0
-888 366 0
-889 349 0
-889 366 0
-890 350 0
-890 367 0
-891 350 0
-891 367 0
-892 352 0
-892 357 0
-893 352 0
-893 357 0
-80 886 887 888 889 890 891 892 893 0
-894 348 0
-894 355 0
-895 348 0
-895 355 0
-896 351 0
-896 357 0
-897 351 0
-897 357 0
-81 894 895 896 897 0
-898 355 0
-898 358 0
-899 355 0
-899 358 0
-82 898 899 0
-900 355 0
-900 365 0
-901 355 0
-901 365 0
-902 356 0
-902 361 0
-903 356 0
-903 361 0
-83 900 901 902 903 0
-904 354 0
-904 361 0
-905 354 0
-905 361 0
-906 355 0
-906 364 0
-907 355 0
-907 364 0
-84 904 905 906 907 0
-908 351 0
-908 352 0
-909 351 0
-909 352 0
-910 355 0
-910 359 0
-911 355 0
-911 359 0
-85 908 909 910 911 0
-86 0
-912 354 0
-912 356 0
-913 354 0
-913 356 0
-914 362 0
-914 368 0
-915 362 0
-915 368 0
-916 364 0
-916 365 0
-917 364 0
-917 365 0
-87 912 913 914 915 916 917 0
-918 361 0
-918 368 0
-919 361 0
-919 368 0
-920 363 0
-920 369 0
-921 363 0
-921 369 0
-88 918 919 920 921 0
-922 362 0
-922 369 0
-923 362 0
-923 369 0
-89 922 923 0
-924 349 0
-924 351 0
-925 349 0
-925 351 0
-926 367 0
-926 369 0
-927 367 0
-927 369 0
-90 924 925 926 927 0
-928 371 0
-928 371 0
-91 928 0
-929 370 0
-929 371 0
-930 370 0
-930 371 0
-92 929 930 0
-931 374 0
-931 393 0
-932 374 0
-932 393 0
-933 375 0
-933 390 0
-934 375 0
-934 390 0
-93 931 932 933 934 0
-935 373 0
-935 393 0
-936 373 0
-936 393 0
-937 375 0
-937 391 0
-938 375 0
-938 391 0
-94 935 936 937 938 0
-939 372 0
-939 383 0
-940 372 0
-940 383 0
-941 373 0
-941 390 0
-942 373 0
-942 390 0
-943 374 0
-943 391 0
-944 374 0
-944 391 0
-945 376 0
-945 381 0
-946 376 0
-946 381 0
-95 939 940 941 942 943 944 945 946 0
-947 372 0
-947 379 0
-948 372 0
-948 379 0
-949 375 0
-949 381 0
-950 375 0
-950 381 0
-96 947 948 949 950 0
-951 379 0
-951 382 0
-952 379 0
-952 382 0
-97 951 952 0
-953 379 0
-953 389 0
-954 379 0
-954 389 0
-955 380 0
-955 385 0
-956 380 0
-956 385 0
-98 953 954 955 956 0
-957 378 0
-957 385 0
-958 378 0
-958 385 0
-959 379 0
-959 388 0
-960 379 0
-960 388 0
-99 957 958 959 960 0
-961 375 0
-961 376 0
-962 375 0
-962 376 0
-963 379 0
-963 383 0
-964 379 0
-964 383 0
-100 961 962 963 964 0
-101 0
-965 378 0
-965 380 0
-966 378 0
-966 380 0
-967 386 0
-967 392 0
-968 386 0
-968 392 0
-969 388 0
-969 389 0
-970 388 0
-970 389 0
-102 965 966 967 968 969 970 0
-971 385 0
-971 392 0
-972 385 0
-972 392 0
-973 387 0
-973 393 0
-974 387 0
-974 393 0
-103 971 972 973 974 0
-975 386 0
-975 393 0
-976 386 0
-976 393 0
-104 975 976 0
-977 373 0
-977 375 0
-978 373 0
-978 375 0
-979 391 0
-979 393 0
-980 391 0
-980 393 0
-105 977 978 979 980 0
-981 395 0
-981 395 0
-106 981 0
-982 394 0
-982 395 0
-983 394 0
-983 395 0
-107 982 983 0
-984 398 0
-984 417 0
-985 398 0
-985 417 0
-986 399 0
-986 414 0
-987 399 0
-987 414 0
-108 984 985 986 987 0
-988 397 0
-988 417 0
-989 397 0
-989 417 0
-990 399 0
-990 415 0
-991 399 0
-991 415 0
-109 988 989 990 991 0
-992 396 0
-992 407 0
-993 396 0
-993 407 0
-994 397 0
-994 414 0
-995 397 0
-995 414 0
-996 398 0
-996 415 0
-997 398 0
-997 415 0
-998 400 0
-998 405 0
-999 400 0
-999 405 0
-110 992 993 994 995 996 997 998 999 0
-1000 396 0
-1000 403 0
-1001 396 0
-1001 403 0
-1002 399 0
-1002 405 0
-1003 399 0
-1003 405 0
-111 1000 1001 1002 1003 0
-1004 403 0
-1004 406 0
-1005 403 0
-1005 406 0
-112 1004 1005 0
-1006 403 0
-1006 413 0
-1007 403 0
-1007 413 0
-1008 404 0
-1008 409 0
-1009 404 0
-1009 409 0
-113 1006 1007 1008 1009 0
-1010 402 0
-1010 409 0
-1011 402 0
-1011 409 0
-1012 403 0
-1012 412 0
-1013 403 0
-1013 412 0
-114 1010 1011 1012 1013 0
-1014 399 0
-1014 400 0
-1015 399 0
-1015 400 0
-1016 403 0
-1016 407 0
-1017 403 0
-1017 407 0
-115 1014 1015 1016 1017 0
-116 0
-1018 402 0
-1018 404 0
-1019 402 0
-1019 404 0
-1020 410 0
-1020 416 0
-1021 410 0
-1021 416 0
-1022 412 0
-1022 413 0
-1023 412 0
-1023 413 0
-117 1018 1019 1020 1021 1022 1023 0
-1024 409 0
-1024 416 0
-1025 409 0
-1025 416 0
-1026 411 0
-1026 417 0
-1027 411 0
-1027 417 0
-118 1024 1025 1026 1027 0
-1028 410 0
-1028 417 0
-1029 410 0
-1029 417 0
-119 1028 1029 0
-1030 397 0
-1030 399 0
-1031 397 0
-1031 399 0
-1032 415 0
-1032 417 0
-1033 415 0
-1033 417 0
-120 1030 1031 1032 1033 0
-1034 419 0
-1034 419 0
-121 1034 0
-1035 418 0
-1035 419 0
-1036 418 0
-1036 419 0
-122 1035 1036 0
-1037 422 0
-1037 441 0
-1038 422 0
-1038 441 0
-1039 423 0
-1039 438 0
-1040 423 0
-1040 438 0
-123 1037 1038 1039 1040 0
-1041 421 0
-1041 441 0
-1042 421 0
-1042 441 0
-1043 423 0
-1043 439 0
-1044 423 0
-1044 439 0
-124 1041 1042 1043 1044 0
-1045 420 0
-1045 431 0
-1046 420 0
-1046 431 0
-1047 421 0
-1047 438 0
-1048 421 0
-1048 438 0
-1049 422 0
-1049 439 0
-1050 422 0
-1050 439 0
-1051 424 0
-1051 429 0
-1052 424 0
-1052 429 0
-125 1045 1046 1047 1048 1049 1050 1051 1052 0
-1053 420 0
-1053 427 0
-1054 420 0
-1054 427 0
-1055 423 0
-1055 429 0
-1056 423 0
-1056 429 0
-126 1053 1054 1055 1056 0
-1057 427 0
-1057 430 0
-1058 427 0
-1058 430 0
-127 1057 1058 0
-1059 427 0
-1059 437 0
-1060 427 0
-1060 437 0
-1061 428 0
-1061 433 0
-1062 428 0
-1062 433 0
-128 1059 1060 1061 1062 0
-1063 426 0
-1063 433 0
-1064 426 0
-1064 433 0
-1065 427 0
-1065 436 0
-1066 427 0
-1066 436 0
-129 1063 1064 1065 1066 0
-1067 423 0
-1067 424 0
-1068 423 0
-1068 424 0
-1069 427 0
-1069 431 0
-1070 427 0
-1070 431 0
-130 1067 1068 1069 1070 0
-131 0
-1071 426 0
-1071 428 0
-1072 426 0
-1072 428 0
-1073 434 0
-1073 440 0
-1074 434 0
-1074 440 0
-1075 436 0
-1075 437 0
-1076 436 0
-1076 437 0
-132 1071 1072 1073 1074 1075 1076 0
-1077 433 0
-1077 440 0
-1078 433 0
-1078 440 0
-1079 435 0
-1079 441 0
-1080 435 0
-1080 441 0
-133 1077 1078 1079 1080 0
-1081 434 0
-1081 441 0
-1082 434 0
-1082 441 0
-134 1081 1082 0
-1083 421 0
-1083 423 0
-1084 421 0
-1084 423 0
-1085 439 0
-1085 441 0
-1086 439 0
-1086 441 0
-135 1083 1084 1085 1086 0
-1087 443 0
-1087 443 0
-136 1087 0
-1088 442 0
-1088 443 0
-1089 442 0
-1089 443 0
-137 1088 1089 0
-1090 446 0
-1090 465 0
-1091 446 0
-1091 465 0
-1092 447 0
-1092 462 0
-1093 447 0
-1093 462 0
-138 1090 1091 1092 1093 0
-1094 445 0
-1094 465 0
-1095 445 0
-1095 465 0
-1096 447 0
-1096 463 0
-1097 447 0
-1097 463 0
-139 1094 1095 1096 1097 0
-1098 444 0
-1098 455 0
-1099 444 0
-1099 455 0
-1100 445 0
-1100 462 0
-1101 445 0
-1101 462 0
-1102 446 0
-1102 463 0
-1103 446 0
-1103 463 0
-1104 448 0
-1104 453 0
-1105 448 0
-1105 453 0
-140 1098 1099 1100 1101 1102 1103 1104 1105 0
-1106 444 0
-1106 451 0
-1107 444 0
-1107 451 0
-1108 447 0
-1108 453 0
-1109 447 0
-1109 453 0
-141 1106 1107 1108 1109 0
-1110 451 0
-1110 454 0
-1111 451 0
-1111 454 0
-142 1110 1111 0
-1112 451 0
-1112 461 0
-1113 451 0
-1113 461 0
-1114 452 0
-1114 457 0
-1115 452 0
-1115 457 0
-143 1112 1113 1114 1115 0
-1116 450 0
-1116 457 0
-1117 450 0
-1117 457 0
-1118 451 0
-1118 460 0
-1119 451 0
-1119 460 0
-144 1116 1117 1118 1119 0
-1120 447 0
-1120 448 0
-1121 447 0
-1121 448 0
-1122 451 0
-1122 455 0
-1123 451 0
-1123 455 0
-145 1120 1121 1122 1123 0
-146 0
-1124 450 0
-1124 452 0
-1125 450 0
-1125 452 0
-1126 458 0
-1126 464 0
-1127 458 0
-1127 464 0
-1128 460 0
-1128 461 0
-1129 460 0
-1129 461 0
-147 1124 1125 1126 1127 1128 1129 0
-1130 457 0
-1130 464 0
-1131 457 0
-1131 464 0
-1132 459 0
-1132 465 0
-1133 459 0
-1133 465 0
-148 1130 1131 1132 1133 0
-1134 458 0
-1134 465 0
-1135 458 0
-1135 465 0
-149 1134 1135 0
-1136 445 0
-1136 447 0
-1137 445 0
-1137 447 0
-1138 463 0
-1138 465 0
-1139 463 0
-1139 465 0
-150 1136 1137 1138 1139 0
-1140 467 0
-1140 467 0
-151 1140 0
-1141 466 0
-1141 467 0
-1142 466 0
-1142 467 0
-152 1141 1142 0
-1143 470 0
-1143 489 0
-1144 470 0
-1144 489 0
-1145 471 0
-1145 486 0
-1146 471 0
-1146 486 0
-153 1143 1144 1145 1146 0
-1147 469 0
-1147 489 0
-1148 469 0
-1148 489 0
-1149 471 0
-1149 487 0
-1150 471 0
-1150 487 0
-154 1147 1148 1149 1150 0
-1151 468 0
-1151 479 0
-1152 468 0
-1152 479 0
-1153 469 0
-1153 486 0
-1154 469 0
-1154 486 0
-1155 470 0
-1155 487 0
-1156 470 0
-1156 487 0
-1157 472 0
-1157 477 0
-1158 472 0
-1158 477 0
-155 1151 1152 1153 1154 1155 1156 1157 1158 0
-1159 468 0
-1159 475 0
-1160 468 0
-1160 475 0
-1161 471 0
-1161 477 0
-1162 471 0
-1162 477 0
-156 1159 1160 1161 1162 0
-1163 475 0
-1163 478 0
-1164 475 0
-1164 478 0
-157 1163 1164 0
-1165 475 0
-1165 485 0
-1166 475 0
-1166 485 0
-1167 476 0
-1167 481 0
-1168 476 0
-1168 481 0
-158 1165 1166 1167 1168 0
-1169 474 0
-1169 481 0
-1170 474 0
-1170 481 0
-1171 475 0
-1171 484 0
-1172 475 0
-1172 484 0
-159 1169 1170 1171 1172 0
-1173 471 0
-1173 472 0
-1174 471 0
-1174 472 0
-1175 475 0
-1175 479 0
-1176 475 0
-1176 479 0
-160 1173 1174 1175 1176 0
-161 0
-1177 474 0
-1177 476 0
-1178 474 0
-1178 476 0
-1179 482 0
-1179 488 0
-1180 482 0
-1180 488 0
-1181 484 0
-1181 485 0
-1182 484 0
-1182 485 0
-162 1177 1178 1179 1180 1181 1182 0
-1183 481 0
-1183 488 0
-1184 481 0
-1184 488 0
-1185 483 0
-1185 489 0
-1186 483 0
-1186 489 0
-163 1183 1184 1185 1186 0
-1187 482 0
-1187 489 0
-1188 482 0
-1188 489 0
-164 1187 1188 0
-1189 469 0
-1189 471 0
-1190 469 0
-1190 471 0
-1191 487 0
-1191 489 0
-1192 487 0
-1192 489 0
-165 1189 1190 1191 1192 0
-1193 491 0
-1193 491 0
-166 1193 0
-1194 490 0
-1194 491 0
-1195 490 0
-1195 491 0
-167 1194 1195 0
-1196 494 0
-1196 513 0
-1197 494 0
-1197 513 0
-1198 495 0
-1198 510 0
-1199 495 0
-1199 510 0
-168 1196 1197 1198 1199 0
-1200 493 0
-1200 513 0
-1201 493 0
-1201 513 0
-1202 495 0
-1202 511 0
-1203 495 0
-1203 511 0
-169 1200 1201 1202 1203 0
-1204 492 0
-1204 503 0
-1205 492 0
-1205 503 0
-1206 493 0
-1206 510 0
-1207 493 0
-1207 510 0
-1208 494 0
-1208 511 0
-1209 494 0
-1209 511 0
-1210 496 0
-1210 501 0
-1211 496 0
-1211 501 0
-170 1204 1205 1206 1207 1208 1209 1210 1211 0
-1212 492 0
-1212 499 0
-1213 492 0
-1213 499 0
-1214 495 0
-1214 501 0
-1215 495 0
-1215 501 0
-171 1212 1213 1214 1215 0
-1216 499 0
-1216 502 0
-1217 499 0
-1217 502 0
-172 1216 1217 0
-1218 499 0
-1218 509 0
-1219 499 0
-1219 509 0
-1220 500 0
-1220 505 0
-1221 500 0
-1221 505 0
-173 1218 1219 1220 1221 0
-1222 498 0
-1222 505 0
-1223 498 0
-1223 505 0
-1224 499 0
-1224 508 0
-1225 499 0
-1225 508 0
-174 1222 1223 1224 1225 0
-1226 495 0
-1226 496 0
-1227 495 0
-1227 496 0
-1228 499 0
-1228 503 0
-1229 499 0
-1229 503 0
-175 1226 1227 1228 1229 0
-176 0
-1230 498 0
-1230 500 0
-1231 498 0
-1231 500 0
-1232 506 0
-1232 512 0
-1233 506 0
-1233 512 0
-1234 508 0
-1234 509 0
-1235 508 0
-1235 509 0
-177 1230 1231 1232 1233 1234 1235 0
-1236 505 0
-1236 512 0
-1237 505 0
-1237 512 0
-1238 507 0
-1238 513 0
-1239 507 0
-1239 513 0
-178 1236 1237 1238 1239 0
-1240 506 0
-1240 513 0
-1241 506 0
-1241 513 0
-179 1240 1241 0
-1242 493 0
-1242 495 0
-1243 493 0
-1243 495 0
-1244 511 0
-1244 513 0
-1245 511 0
-1245 513 0
-180 1242 1243 1244 1245 0
-1246 515 0
-1246 515 0
-181 1246 0
-1247 514 0
-1247 515 0
-1248 514 0
-1248 515 0
-182 1247 1248 0
-1249 518 0
-1249 537 0
-1250 518 0
-1250 537 0
-1251 519 0
-1251 534 0
-1252 519 0
-1252 534 0
-183 1249 1250 1251 1252 0
-1253 517 0
-1253 537 0
-1254 517 0
-1254 537 0
-1255 519 0
-1255 535 0
-1256 519 0
-1256 535 0
-184 1253 1254 1255 1256 0
-1257 516 0
-1257 527 0
-1258 516 0
-1258 527 0
-1259 517 0
-1259 534 0
-1260 517 0
-1260 534 0
-1261 518 0
-1261 535 0
-1262 518 0
-1262 535 0
-1263 520 0
-1263 525 0
-1264 520 0
-1264 525 0
-185 1257 1258 1259 1260 1261 1262 1263 1264 0
-1265 516 0
-1265 523 0
-1266 516 0
-1266 523 0
-1267 519 0
-1267 525 0
-1268 519 0
-1268 525 0
-186 1265 1266 1267 1268 0
-1269 523 0
-1269 526 0
-1270 523 0
-1270 526 0
-187 1269 1270 0
-1271 523 0
-1271 533 0
-1272 523 0
-1272 533 0
-1273 524 0
-1273 529 0
-1274 524 0
-1274 529 0
-188 1271 1272 1273 1274 0
-1275 522 0
-1275 529 0
-1276 522 0
-1276 529 0
-1277 523 0
-1277 532 0
-1278 523 0
-1278 532 0
-189 1275 1276 1277 1278 0
-1279 519 0
-1279 520 0
-1280 519 0
-1280 520 0
-1281 523 0
-1281 527 0
-1282 523 0
-1282 527 0
-190 1279 1280 1281 1282 0
-191 0
-1283 522 0
-1283 524 0
-1284 522 0
-1284 524 0
-1285 530 0
-1285 536 0
-1286 530 0
-1286 536 0
-1287 532 0
-1287 533 0
-1288 532 0
-1288 533 0
-192 1283 1284 1285 1286 1287 1288 0
-1289 529 0
-1289 536 0
-1290 529 0
-1290 536 0
-1291 531 0
-1291 537 0
-1292 531 0
-1292 537 0
-193 1289 1290 1291 1292 0
-1293 530 0
-1293 537 0
-1294 530 0
-1294 537 0
-194 1293 1294 0
-1295 517 0
-1295 519 0
-1296 517 0
-1296 519 0
-1297 535 0
-1297 537 0
-1298 535 0
-1298 537 0
-195 1295 1296 1297 1298 0
-1299 539 0
-1299 539 0
-196 1299 0
-1300 538 0
-1300 539 0
-1301 538 0
-1301 539 0
-197 1300 1301 0
-1302 542 0
-1302 561 0
-1303 542 0
-1303 561 0
-1304 543 0
-1304 558 0
-1305 543 0
-1305 558 0
-198 1302 1303 1304 1305 0
-1306 541 0
-1306 561 0
-1307 541 0
-1307 561 0
-1308 543 0
-1308 559 0
-1309 543 0
-1309 559 0
-199 1306 1307 1308 1309 0
-1310 540 0
-1310 551 0
-1311 540 0
-1311 551 0
-1312 541 0
-1312 558 0
-1313 541 0
-1313 558 0
-1314 542 0
-1314 559 0
-1315 542 0
-1315 559 0
-1316 544 0
-1316 549 0
-1317 544 0
-1317 549 0
-200 1310 1311 1312 1313 1314 1315 1316 1317 0
-1318 540 0
-1318 547 0
-1319 540 0
-1319 547 0
-1320 543 0
-1320 549 0
-1321 543 0
-1321 549 0
-201 1318 1319 1320 1321 0
-1322 547 0
-1322 550 0
-1323 547 0
-1323 550 0
-202 1322 1323 0
-1324 547 0
-1324 557 0
-1325 547 0
-1325 557 0
-1326 548 0
-1326 553 0
-1327 548 0
-1327 553 0
-203 1324 1325 1326 1327 0
-1328 546 0
-1328 553 0
-1329 546 0
-1329 553 0
-1330 547 0
-1330 556 0
-1331 547 0
-1331 556 0
-204 1328 1329 1330 1331 0
-1332 543 0
-1332 544 0
-1333 543 0
-1333 544 0
-1334 547 0
-1334 551 0
-1335 547 0
-1335 551 0
-205 1332 1333 1334 1335 0
-206 0
-1336 546 0
-1336 548 0
-1337 546 0
-1337 548 0
-1338 554 0
-1338 560 0
-1339 554 0
-1339 560 0
-1340 556 0
-1340 557 0
-1341 556 0
-1341 557 0
-207 1336 1337 1338 1339 1340 1341 0
-1342 553 0
-1342 560 0
-1343 553 0
-1343 560 0
-1344 555 0
-1344 561 0
-1345 555 0
-1345 561 0
-208 1342 1343 1344 1345 0
-1346 554 0
-1346 561 0
-1347 554 0
-1347 561 0
-209 1346 1347 0
-1348 541 0
-1348 543 0
-1349 541 0
-1349 543 0
-1350 559 0
-1350 561 0
-1351 559 0
-1351 561 0
-210 1348 1349 1350 1351 0
-1352 563 0
-1352 563 0
-211 1352 0
-1353 562 0
-1353 563 0
-1354 562 0
-1354 563 0
-212 1353 1354 0
-1355 566 0
-1355 585 0
-1356 566 0
-1356 585 0
-1357 567 0
-1357 582 0
-1358 567 0
-1358 582 0
-213 1355 1356 1357 1358 0
-1359 565 0
-1359 585 0
-1360 565 0
-1360 585 0
-1361 567 0
-1361 583 0
-1362 567 0
-1362 583 0
-214 1359 1360 1361 1362 0
-1363 564 0
-1363 575 0
-1364 564 0
-1364 575 0
-1365 565 0
-1365 582 0
-1366 565 0
-1366 582 0
-1367 566 0
-1367 583 0
-1368 566 0
-1368 583 0
-1369 568 0
-1369 573 0
-1370 568 0
-1370 573 0
-215 1363 1364 1365 1366 1367 1368 1369 1370 0
-1371 564 0
-1371 571 0
-1372 564 0
-1372 571 0
-1373 567 0
-1373 573 0
-1374 567 0
-1374 573 0
-216 1371 1372 1373 1374 0
-1375 571 0
-1375 574 0
-1376 571 0
-1376 574 0
-217 1375 1376 0
-1377 571 0
-1377 581 0
-1378 571 0
-1378 581 0
-1379 572 0
-1379 577 0
-1380 572 0
-1380 577 0
-218 1377 1378 1379 1380 0
-1381 570 0
-1381 577 0
-1382 570 0
-1382 577 0
-1383 571 0
-1383 580 0
-1384 571 0
-1384 580 0
-219 1381 1382 1383 1384 0
-1385 567 0
-1385 568 0
-1386 567 0
-1386 568 0
-1387 571 0
-1387 575 0
-1388 571 0
-1388 575 0
-220 1385 1386 1387 1388 0
-221 0
-1389 570 0
-1389 572 0
-1390 570 0
-1390 572 0
-1391 578 0
-1391 584 0
-1392 578 0
-1392 584 0
-1393 580 0
-1393 581 0
-1394 580 0
-1394 581 0
-222 1389 1390 1391 1392 1393 1394 0
-1395 577 0
-1395 584 0
-1396 577 0
-1396 584 0
-1397 579 0
-1397 585 0
-1398 579 0
-1398 585 0
-223 1395 1396 1397 1398 0
-1399 578 0
-1399 585 0
-1400 578 0
-1400 585 0
-224 1399 1400 0
-1401 565 0
-1401 567 0
-1402 565 0
-1402 567 0
-1403 583 0
-1403 585 0
-1404 583 0
-1404 585 0
-225 1401 1402 1403 1404 0
