p cnf 1419 3819
-1 -2 0
-1 -3 0
-1 -4 0
-1 -5 0
-1 -6 0
-1 -7 0
-1 -8 0
-1 -9 0
-1 -10 0
-1 -11 0
-1 -12 0
-1 -13 0
-1 -14 0
-1 -15 0
-2 -3 0
-2 -4 0
-2 -5 0
-2 -6 0
-2 -7 0
-2 -8 0
-2 -9 0
-2 -10 0
-2 -11 0
-2 -12 0
-2 -13 0
-2 -14 0
-2 -15 0
-3 -4 0
-3 -5 0
-3 -6 0
-3 -7 0
-3 -8 0
-3 -9 0
-3 -10 0
-3 -11 0
-3 -12 0
-3 -13 0
-3 -14 0
-3 -15 0
-4 -5 0
-4 -6 0
-4 -7 0
-4 -8 0
-4 -9 0
-4 -10 0
-4 -11 0
-4 -12 0
-4 -13 0
-4 -14 0
-4 -15 0
-5 -6 0
-5 -7 0
-5 -8 0
-5 -9 0
-5 -10 0
-5 -11 0
-5 -12 0
-5 -13 0
-5 -14 0
-5 -15 0
-6 -7 0
-6 -8 0
-6 -9 0
-6 -10 0
-6 -11 0
-6 -12 0
-6 -13 0
-6 -14 0
-6 -15 0
-7 -8 0
-7 -9 0
-7 -10 0
-7 -11 0
-7 -12 0
-7 -13 0
-7 -14 0
-7 -15 0
-8 -9 0
-8 -10 0
-8 -11 0
-8 -12 0
-8 -13 0
-8 -14 0
-8 -15 0
-9 -10 0
-9 -11 0
-9 -12 0
-9 -13 0
-9 -14 0
-9 -15 0
-10 -11 0
-10 -12 0
-10 -13 0
-10 -14 0
-10 -15 0
-11 -12 0
-11 -13 0
-11 -14 0
-11 -15 0
-12 -13 0
-12 -14 0
-12 -15 0
-13 -14 0
-13 -15 0
-14 -15 0
-250 226 1 0
-251 227 0
-252 228 2 0
-253 229 3 0
-254 230 4 0
-255 231 5 0
-256 232 6 0
-257 233 7 0
-258 234 0
-259 235 8 0
-260 236 9 0
-261 237 0
-262 238 0
-263 239 10 0
-264 240 11 0
-265 241 12 0
-266 242 13 0
-267 243 14 0
-268 244 0
-269 245 0
-270 246 15 0
-271 247 0
-272 248 0
-273 249 0
-16 -17 0
-16 -18 0
-16 -19 0
-16 -20 0
-16 -21 0
-16 -22 0
-16 -23 0
-16 -24 0
-16 -25 0
-16 -26 0
-16 -27 0
-16 -28 0
-16 -29 0
-16 -30 0
-17 -18 0
-17 -19 0
-17 -20 0
-17 -21 0
-17 -22 0
-17 -23 0
-17 -24 0
-17 -25 0
-17 -26 0
-17 -27 0
-17 -28 0
-17 -29 0
-17 -30 0
-18 -19 0
-18 -20 0
-18 -21 0
-18 -22 0
-18 -23 0
-18 -24 0
-18 -25 0
-18 -26 0
-18 -27 0
-18 -28 0
-18 -29 0
-18 -30 0
-19 -20 0
-19 -21 0
-19 -22 0
-19 -23 0
-19 -24 0
-19 -25 0
-19 -26 0
-19 -27 0
-19 -28 0
-19 -29 0
-19 -30 0
-20 -21 0
-20 -22 0
-20 -23 0
-20 -24 0
-20 -25 0
-20 -26 0
-20 -27 0
-20 -28 0
-20 -29 0
-20 -30 0
-21 -22 0
-21 -23 0
-21 -24 0
-21 -25 0
-21 -26 0
-21 -27 0
-21 -28 0
-21 -29 0
-21 -30 0
-22 -23 0
-22 -24 0
-22 -25 0
-22 -26 0
-22 -27 0
-22 -28 0
-22 -29 0
-22 -30 0
-23 -24 0
-23 -25 0
-23 -26 0
-23 -27 0
-23 -28 0
-23 -29 0
-23 -30 0
-24 -25 0
-24 -26 0
-24 -27 0
-24 -28 0
-24 -29 0
-24 -30 0
-25 -26 0
-25 -27 0
-25 -28 0
-25 -29 0
-25 -30 0
-26 -27 0
-26 -28 0
-26 -29 0
-26 -30 0
-27 -28 0
-27 -29 0
-27 -30 0
-28 -29 0
-28 -30 0
-29 -30 0
-274 250 16 0
-275 251 0
-276 252 17 0
-277 253 18 0
-278 254 19 0
-279 255 20 0
-280 256 21 0
-281 257 22 0
-282 258 0
-283 259 23 0
-284 260 24 0
-285 261 0
-286 262 0
-287 263 25 0
-288 264 26 0
-289 265 27 0
-290 266 28 0
-291 267 29 0
-292 268 0
-293 269 0
-294 270 30 0
-295 271 0
-296 272 0
-297 273 0
-31 -32 0
-31 -33 0
-31 -34 0
-31 -35 0
-31 -36 0
-31 -37 0
-31 -38 0
-31 -39 0
-31 -40 0
-31 -41 0
-31 -42 0
-31 -43 0
-31 -44 0
-31 -45 0
-32 -33 0
-32 -34 0
-32 -35 0
-32 -36 0
-32 -37 0
-32 -38 0
-32 -39 0
-32 -40 0
-32 -41 0
-32 -42 0
-32 -43 0
-32 -44 0
-32 -45 0
-33 -34 0
-33 -35 0
-33 -36 0
-33 -37 0
-33 -38 0
-33 -39 0
-33 -40 0
-33 -41 0
-33 -42 0
-33 -43 0
-33 -44 0
-33 -45 0
-34 -35 0
-34 -36 0
-34 -37 0
-34 -38 0
-34 -39 0
-34 -40 0
-34 -41 0
-34 -42 0
-34 -43 0
-34 -44 0
-34 -45 0
-35 -36 0
-35 -37 0
-35 -38 0
-35 -39 0
-35 -40 0
-35 -41 0
-35 -42 0
-35 -43 0
-35 -44 0
-35 -45 0
-36 -37 0
-36 -38 0
-36 -39 0
-36 -40 0
-36 -41 0
-36 -42 0
-36 -43 0
-36 -44 0
-36 -45 0
-37 -38 0
-37 -39 0
-37 -40 0
-37 -41 0
-37 -42 0
-37 -43 0
-37 -44 0
-37 -45 0
-38 -39 0
-38 -40 0
-38 -41 0
-38 -42 0
-38 -43 0
-38 -44 0
-38 -45 0
-39 -40 0
-39 -41 0
-39 -42 0
-39 -43 0
-39 -44 0
-39 -45 0
-40 -41 0
-40 -42 0
-40 -43 0
-40 -44 0
-40 -45 0
-41 -42 0
-41 -43 0
-41 -44 0
-41 -45 0
-42 -43 0
-42 -44 0
-42 -45 0
-43 -44 0
-43 -45 0
-44 -45 0
-298 274 31 0
-299 275 0
-300 276 32 0
-301 277 33 0
-302 278 34 0
-303 279 35 0
-304 280 36 0
-305 281 37 0
-306 282 0
-307 283 38 0
-308 284 39 0
-309 285 0
-310 286 0
-311 287 40 0
-312 288 41 0
-313 289 42 0
-314 290 43 0
-315 291 44 0
-316 292 0
-317 293 0
-318 294 45 0
-319 295 0
-320 296 0
-321 297 0
-46 -47 0
-46 -48 0
-46 -49 0
-46 -50 0
-46 -51 0
-46 -52 0
-46 -53 0
-46 -54 0
-46 -55 0
-46 -56 0
-46 -57 0
-46 -58 0
-46 -59 0
-46 -60 0
-47 -48 0
-47 -49 0
-47 -50 0
-47 -51 0
-47 -52 0
-47 -53 0
-47 -54 0
-47 -55 0
-47 -56 0
-47 -57 0
-47 -58 0
-47 -59 0
-47 -60 0
-48 -49 0
-48 -50 0
-48 -51 0
-48 -52 0
-48 -53 0
-48 -54 0
-48 -55 0
-48 -56 0
-48 -57 0
-48 -58 0
-48 -59 0
-48 -60 0
-49 -50 0
-49 -51 0
-49 -52 0
-49 -53 0
-49 -54 0
-49 -55 0
-49 -56 0
-49 -57 0
-49 -58 0
-49 -59 0
-49 -60 0
-50 -51 0
-50 -52 0
-50 -53 0
-50 -54 0
-50 -55 0
-50 -56 0
-50 -57 0
-50 -58 0
-50 -59 0
-50 -60 0
-51 -52 0
-51 -53 0
-51 -54 0
-51 -55 0
-51 -56 0
-51 -57 0
-51 -58 0
-51 -59 0
-51 -60 0
-52 -53 0
-52 -54 0
-52 -55 0
-52 -56 0
-52 -57 0
-52 -58 0
-52 -59 0
-52 -60 0
-53 -54 0
-53 -55 0
-53 -56 0
-53 -57 0
-53 -58 0
-53 -59 0
-53 -60 0
-54 -55 0
-54 -56 0
-54 -57 0
-54 -58 0
-54 -59 0
-54 -60 0
-55 -56 0
-55 -57 0
-55 -58 0
-55 -59 0
-55 -60 0
-56 -57 0
-56 -58 0
-56 -59 0
-56 -60 0
-57 -58 0
-57 -59 0
-57 -60 0
-58 -59 0
-58 -60 0
-59 -60 0
-322 298 46 0
-323 299 0
-324 300 47 0
-325 301 48 0
-326 302 49 0
-327 303 50 0
-328 304 51 0
-329 305 52 0
-330 306 0
-331 307 53 0
-332 308 54 0
-333 309 0
-334 310 0
-335 311 55 0
-336 312 56 0
-337 313 57 0
-338 314 58 0
-339 315 59 0
-340 316 0
-341 317 0
-342 318 60 0
-343 319 0
-344 320 0
-345 321 0
-61 -62 0
-61 -63 0
-61 -64 0
-61 -65 0
-61 -66 0
-61 -67 0
-61 -68 0
-61 -69 0
-61 -70 0
-61 -71 0
-61 -72 0
-61 -73 0
-61 -74 0
-61 -75 0
-62 -63 0
-62 -64 0
-62 -65 0
-62 -66 0
-62 -67 0
-62 -68 0
-62 -69 0
-62 -70 0
-62 -71 0
-62 -72 0
-62 -73 0
-62 -74 0
-62 -75 0
-63 -64 0
-63 -65 0
-63 -66 0
-63 -67 0
-63 -68 0
-63 -69 0
-63 -70 0
-63 -71 0
-63 -72 0
-63 -73 0
-63 -74 0
-63 -75 0
-64 -65 0
-64 -66 0
-64 -67 0
-64 -68 0
-64 -69 0
-64 -70 0
-64 -71 0
-64 -72 0
-64 -73 0
-64 -74 0
-64 -75 0
-65 -66 0
-65 -67 0
-65 -68 0
-65 -69 0
-65 -70 0
-65 -71 0
-65 -72 0
-65 -73 0
-65 -74 0
-65 -75 0
-66 -67 0
-66 -68 0
-66 -69 0
-66 -70 0
-66 -71 0
-66 -72 0
-66 -73 0
-66 -74 0
-66 -75 0
-67 -68 0
-67 -69 0
-67 -70 0
-67 -71 0
-67 -72 0
-67 -73 0
-67 -74 0
-67 -75 0
-68 -69 0
-68 -70 0
-68 -71 0
-68 -72 0
-68 -73 0
-68 -74 0
-68 -75 0
-69 -70 0
-69 -71 0
-69 -72 0
-69 -73 0
-69 -74 0
-69 -75 0
-70 -71 0
-70 -72 0
-70 -73 0
-70 -74 0
-70 -75 0
-71 -72 0
-71 -73 0
-71 -74 0
-71 -75 0
-72 -73 0
-72 -74 0
-72 -75 0
-73 -74 0
-73 -75 0
-74 -75 0
-346 322 61 0
-347 323 0
-348 324 62 0
-349 325 63 0
-350 326 64 0
-351 327 65 0
-352 328 66 0
-353 329 67 0
-354 330 0
-355 331 68 0
-356 332 69 0
-357 333 0
-358 334 0
-359 335 70 0
-360 336 71 0
-361 337 72 0
-362 338 73 0
-363 339 74 0
-364 340 0
-365 341 0
-366 342 75 0
-367 343 0
-368 344 0
-369 345 0
-76 -77 0
-76 -78 0
-76 -79 0
-76 -80 0
-76 -81 0
-76 -82 0
-76 -83 0
-76 -84 0
-76 -85 0
-76 -86 0
-76 -87 0
-76 -88 0
-76 -89 0
-76 -90 0
-77 -78 0
-77 -79 0
-77 -80 0
-77 -81 0
-77 -82 0
-77 -83 0
-77 -84 0
-77 -85 0
-77 -86 0
-77 -87 0
-77 -88 0
-77 -89 0
-77 -90 0
-78 -79 0
-78 -80 0
-78 -81 0
-78 -82 0
-78 -83 0
-78 -84 0
-78 -85 0
-78 -86 0
-78 -87 0
-78 -88 0
-78 -89 0
-78 -90 0
-79 -80 0
-79 -81 0
-79 -82 0
-79 -83 0
-79 -84 0
-79 -85 0
-79 -86 0
-79 -87 0
-79 -88 0
-79 -89 0
-79 -90 0
-80 -81 0
-80 -82 0
-80 -83 0
-80 -84 0
-80 -85 0
-80 -86 0
-80 -87 0
-80 -88 0
-80 -89 0
-80 -90 0
-81 -82 0
-81 -83 0
-81 -84 0
-81 -85 0
-81 -86 0
-81 -87 0
-81 -88 0
-81 -89 0
-81 -90 0
-82 -83 0
-82 -84 0
-82 -85 0
-82 -86 0
-82 -87 0
-82 -88 0
-82 -89 0
-82 -90 0
-83 -84 0
-83 -85 0
-83 -86 0
-83 -87 0
-83 -88 0
-83 -89 0
-83 -90 0
-84 -85 0
-84 -86 0
-84 -87 0
-84 -88 0
-84 -89 0
-84 -90 0
-85 -86 0
-85 -87 0
-85 -88 0
-85 -89 0
-85 -90 0
-86 -87 0
-86 -88 0
-86 -89 0
-86 -90 0
-87 -88 0
-87 -89 0
-87 -90 0
-88 -89 0
-88 -90 0
-89 -90 0
-370 346 76 0
-371 347 0
-372 348 77 0
-373 349 78 0
-374 350 79 0
-375 351 80 0
-376 352 81 0
-377 353 82 0
-378 354 0
-379 355 83 0
-380 356 84 0
-381 357 0
-382 358 0
-383 359 85 0
-384 360 86 0
-385 361 87 0
-386 362 88 0
-387 363 89 0
-388 364 0
-389 365 0
-390 366 90 0
-391 367 0
-392 368 0
-393 369 0
-91 -92 0
-91 -93 0
-91 -94 0
-91 -95 0
-91 -96 0
-91 -97 0
-91 -98 0
-91 -99 0
-91 -100 0
-91 -101 0
-91 -102 0
-91 -103 0
-91 -104 0
-91 -105 0
-92 -93 0
-92 -94 0
-92 -95 0
-92 -96 0
-92 -97 0
-92 -98 0
-92 -99 0
-92 -100 0
-92 -101 0
-92 -102 0
-92 -103 0
-92 -104 0
-92 -105 0
-93 -94 0
-93 -95 0
-93 -96 0
-93 -97 0
-93 -98 0
-93 -99 0
-93 -100 0
-93 -101 0
-93 -102 0
-93 -103 0
-93 -104 0
-93 -105 0
-94 -95 0
-94 -96 0
-94 -97 0
-94 -98 0
-94 -99 0
-94 -100 0
-94 -101 0
-94 -102 0
-94 -103 0
-94 -104 0
-94 -105 0
-95 -96 0
-95 -97 0
-95 -98 0
-95 -99 0
-95 -100 0
-95 -101 0
-95 -102 0
-95 -103 0
-95 -104 0
-95 -105 0
-96 -97 0
-96 -98 0
-96 -99 0
-96 -100 0
-96 -101 0
-96 -102 0
-96 -103 0
-96 -104 0
-96 -105 0
-97 -98 0
-97 -99 0
-97 -100 0
-97 -101 0
-97 -102 0
-97 -103 0
-97 -104 0
-97 -105 0
-98 -99 0
-98 -100 0
-98 -101 0
-98 -102 0
-98 -103 0
-98 -104 0
-98 -105 0
-99 -100 0
-99 -101 0
-99 -102 0
-99 -103 0
-99 -104 0
-99 -105 0
-100 -101 0
-100 -102 0
-100 -103 0
-100 -104 0
-100 -105 0
-101 -102 0
-101 -103 0
-101 -104 0
-101 -105 0
-102 -103 0
-102 -104 0
-102 -105 0
-103 -104 0
-103 -105 0
-104 -105 0
-394 370 91 0
-395 371 0
-396 372 92 0
-397 373 93 0
-398 374 94 0
-399 375 95 0
-400 376 96 0
-401 377 97 0
-402 378 0
-403 379 98 0
-404 380 99 0
-405 381 0
-406 382 0
-407 383 100 0
-408 384 101 0
-409 385 102 0
-410 386 103 0
-411 387 104 0
-412 388 0
-413 389 0
-414 390 105 0
-415 391 0
-416 392 0
-417 393 0
-106 -107 0
-106 -108 0
-106 -109 0
-106 -110 0
-106 -111 0
-106 -112 0
-106 -113 0
-106 -114 0
-106 -115 0
-106 -116 0
-106 -117 0
-106 -118 0
-106 -119 0
-106 -120 0
-107 -108 0
-107 -109 0
-107 -110 0
-107 -111 0
-107 -112 0
-107 -113 0
-107 -114 0
-107 -115 0
-107 -116 0
-107 -117 0
-107 -118 0
-107 -119 0
-107 -120 0
-108 -109 0
-108 -110 0
-108 -111 0
-108 -112 0
-108 -113 0
-108 -114 0
-108 -115 0
-108 -116 0
-108 -117 0
-108 -118 0
-108 -119 0
-108 -120 0
-109 -110 0
-109 -111 0
-109 -112 0
-109 -113 0
-109 -114 0
-109 -115 0
-109 -116 0
-109 -117 0
-109 -118 0
-109 -119 0
-109 -120 0
-110 -111 0
-110 -112 0
-110 -113 0
-110 -114 0
-110 -115 0
-110 -116 0
-110 -117 0
-110 -118 0
-110 -119 0
-110 -120 0
-111 -112 0
-111 -113 0
-111 -114 0
-111 -115 0
-111 -116 0
-111 -117 0
-111 -118 0
-111 -119 0
-111 -120 0
-112 -113 0
-112 -114 0
-112 -115 0
-112 -116 0
-112 -117 0
-112 -118 0
-112 -119 0
-112 -120 0
-113 -114 0
-113 -115 0
-113 -116 0
-113 -117 0
-113 -118 0
-113 -119 0
-113 -120 0
-114 -115 0
-114 -116 0
-114 -117 0
-114 -118 0
-114 -119 0
-114 -120 0
-115 -116 0
-115 -117 0
-115 -118 0
-115 -119 0
-115 -120 0
-116 -117 0
-116 -118 0
-116 -119 0
-116 -120 0
-117 -118 0
-117 -119 0
-117 -120 0
-118 -119 0
-118 -120 0
-119 -120 0
-418 394 106 0
-419 395 0
-420 396 107 0
-421 397 108 0
-422 398 109 0
-423 399 110 0
-424 400 111 0
-425 401 112 0
-426 402 0
-427 403 113 0
-428 404 114 0
-429 405 0
-430 406 0
-431 407 115 0
-432 408 116 0
-433 409 117 0
-434 410 118 0
-435 411 119 0
-436 412 0
-437 413 0
-438 414 120 0
-439 415 0
-440 416 0
-441 417 0
-121 -122 0
-121 -123 0
-121 -124 0
-121 -125 0
-121 -126 0
-121 -127 0
-121 -128 0
-121 -129 0
-121 -130 0
-121 -131 0
-121 -132 0
-121 -133 0
-121 -134 0
-121 -135 0
-122 -123 0
-122 -124 0
-122 -125 0
-122 -126 0
-122 -127 0
-122 -128 0
-122 -129 0
-122 -130 0
-122 -131 0
-122 -132 0
-122 -133 0
-122 -134 0
-122 -135 0
-123 -124 0
-123 -125 0
-123 -126 0
-123 -127 0
-123 -128 0
-123 -129 0
-123 -130 0
-123 -131 0
-123 -132 0
-123 -133 0
-123 -134 0
-123 -135 0
-124 -125 0
-124 -126 0
-124 -127 0
-124 -128 0
-124 -129 0
-124 -130 0
-124 -131 0
-124 -132 0
-124 -133 0
-124 -134 0
-124 -135 0
-125 -126 0
-125 -127 0
-125 -128 0
-125 -129 0
-125 -130 0
-125 -131 0
-125 -132 0
-125 -133 0
-125 -134 0
-125 -135 0
-126 -127 0
-126 -128 0
-126 -129 0
-126 -130 0
-126 -131 0
-126 -132 0
-126 -133 0
-126 -134 0
-126 -135 0
-127 -128 0
-127 -129 0
-127 -130 0
-127 -131 0
-127 -132 0
-127 -133 0
-127 -134 0
-127 -135 0
-128 -129 0
-128 -130 0
-128 -131 0
-128 -132 0
-128 -133 0
-128 -134 0
-128 -135 0
-129 -130 0
-129 -131 0
-129 -132 0
-129 -133 0
-129 -134 0
-129 -135 0
-130 -131 0
-130 -132 0
-130 -133 0
-130 -134 0
-130 -135 0
-131 -132 0
-131 -133 0
-131 -134 0
-131 -135 0
-132 -133 0
-132 -134 0
-132 -135 0
-133 -134 0
-133 -135 0
-134 -135 0
-442 418 121 0
-443 419 0
-444 420 122 0
-445 421 123 0
-446 422 124 0
-447 423 125 0
-448 424 126 0
-449 425 127 0
-450 426 0
-451 427 128 0
-452 428 129 0
-453 429 0
-454 430 0
-455 431 130 0
-456 432 131 0
-457 433 132 0
-458 434 133 0
-459 435 134 0
-460 436 0
-461 437 0
-462 438 135 0
-463 439 0
-464 440 0
-465 441 0
-136 -137 0
-136 -138 0
-136 -139 0
-136 -140 0
-136 -141 0
-136 -142 0
-136 -143 0
-136 -144 0
-136 -145 0
-136 -146 0
-136 -147 0
-136 -148 0
-136 -149 0
-136 -150 0
-137 -138 0
-137 -139 0
-137 -140 0
-137 -141 0
-137 -142 0
-137 -143 0
-137 -144 0
-137 -145 0
-137 -146 0
-137 -147 0
-137 -148 0
-137 -149 0
-137 -150 0
-138 -139 0
-138 -140 0
-138 -141 0
-138 -142 0
-138 -143 0
-138 -144 0
-138 -145 0
-138 -146 0
-138 -147 0
-138 -148 0
-138 -149 0
-138 -150 0
-139 -140 0
-139 -141 0
-139 -142 0
-139 -143 0
-139 -144 0
-139 -145 0
-139 -146 0
-139 -147 0
-139 -148 0
-139 -149 0
-139 -150 0
-140 -141 0
-140 -142 0
-140 -143 0
-140 -144 0
-140 -145 0
-140 -146 0
-140 -147 0
-140 -148 0
-140 -149 0
-140 -150 0
-141 -142 0
-141 -143 0
-141 -144 0
-141 -145 0
-141 -146 0
-141 -147 0
-141 -148 0
-141 -149 0
-141 -150 0
-142 -143 0
-142 -144 0
-142 -145 0
-142 -146 0
-142 -147 0
-142 -148 0
-142 -149 0
-142 -150 0
-143 -144 0
-143 -145 0
-143 -146 0
-143 -147 0
-143 -148 0
-143 -149 0
-143 -150 0
-144 -145 0
-144 -146 0
-144 -147 0
-144 -148 0
-144 -149 0
-144 -150 0
-145 -146 0
-145 -147 0
-145 -148 0
-145 -149 0
-145 -150 0
-146 -147 0
-146 -148 0
-146 -149 0
-146 -150 0
-147 -148 0
-147 -149 0
-147 -150 0
-148 -149 0
-148 -150 0
-149 -150 0
-466 442 136 0
-467 443 0
-468 444 137 0
-469 445 138 0
-470 446 139 0
-471 447 140 0
-472 448 141 0
-473 449 142 0
-474 450 0
-475 451 143 0
-476 452 144 0
-477 453 0
-478 454 0
-479 455 145 0
-480 456 146 0
-481 457 147 0
-482 458 148 0
-483 459 149 0
-484 460 0
-485 461 0
-486 462 150 0
-487 463 0
-488 464 0
-489 465 0
-151 -152 0
-151 -153 0
-151 -154 0
-151 -155 0
-151 -156 0
-151 -157 0
-151 -158 0
-151 -159 0
-151 -160 0
-151 -161 0
-151 -162 0
-151 -163 0
-151 -164 0
-151 -165 0
-152 -153 0
-152 -154 0
-152 -155 0
-152 -156 0
-152 -157 0
-152 -158 0
-152 -159 0
-152 -160 0
-152 -161 0
-152 -162 0
-152 -163 0
-152 -164 0
-152 -165 0
-153 -154 0
-153 -155 0
-153 -156 0
-153 -157 0
-153 -158 0
-153 -159 0
-153 -160 0
-153 -161 0
-153 -162 0
-153 -163 0
-153 -164 0
-153 -165 0
-154 -155 0
-154 -156 0
-154 -157 0
-154 -158 0
-154 -159 0
-154 -160 0
-154 -161 0
-154 -162 0
-154 -163 0
-154 -164 0
-154 -165 0
-155 -156 0
-155 -157 0
-155 -158 0
-155 -159 0
-155 -160 0
-155 -161 0
-155 -162 0
-155 -163 0
-155 -164 0
-155 -165 0
-156 -157 0
-156 -158 0
-156 -159 0
-156 -160 0
-156 -161 0
-156 -162 0
-156 -163 0
-156 -164 0
-156 -165 0
-157 -158 0
-157 -159 0
-157 -160 0
-157 -161 0
-157 -162 0
-157 -163 0
-157 -164 0
-157 -165 0
-158 -159 0
-158 -160 0
-158 -161 0
-158 -162 0
-158 -163 0
-158 -164 0
-158 -165 0
-159 -160 0
-159 -161 0
-159 -162 0
-159 -163 0
-159 -164 0
-159 -165 0
-160 -161 0
-160 -162 0
-160 -163 0
-160 -164 0
-160 -165 0
-161 -162 0
-161 -163 0
-161 -164 0
-161 -165 0
-162 -163 0
-162 -164 0
-162 -165 0
-163 -164 0
-163 -165 0
-164 -165 0
-490 466 151 0
-491 467 0
-492 468 152 0
-493 469 153 0
-494 470 154 0
-495 471 155 0
-496 472 156 0
-497 473 157 0
-498 474 0
-499 475 158 0
-500 476 159 0
-501 477 0
-502 478 0
-503 479 160 0
-504 480 161 0
-505 481 162 0
-506 482 163 0
-507 483 164 0
-508 484 0
-509 485 0
-510 486 165 0
-511 487 0
-512 488 0
-513 489 0
-166 -167 0
-166 -168 0
-166 -169 0
-166 -170 0
-166 -171 0
-166 -172 0
-166 -173 0
-166 -174 0
-166 -175 0
-166 -176 0
-166 -177 0
-166 -178 0
-166 -179 0
-166 -180 0
-167 -168 0
-167 -169 0
-167 -170 0
-167 -171 0
-167 -172 0
-167 -173 0
-167 -174 0
-167 -175 0
-167 -176 0
-167 -177 0
-167 -178 0
-167 -179 0
-167 -180 0
-168 -169 0
-168 -170 0
-168 -171 0
-168 -172 0
-168 -173 0
-168 -174 0
-168 -175 0
-168 -176 0
-168 -177 0
-168 -178 0
-168 -179 0
-168 -180 0
-169 -170 0
-169 -171 0
-169 -172 0
-169 -173 0
-169 -174 0
-169 -175 0
-169 -176 0
-169 -177 0
-169 -178 0
-169 -179 0
-169 -180 0
-170 -171 0
-170 -172 0
-170 -173 0
-170 -174 0
-170 -175 0
-170 -176 0
-170 -177 0
-170 -178 0
-170 -179 0
-170 -180 0
-171 -172 0
-171 -173 0
-171 -174 0
-171 -175 0
-171 -176 0
-171 -177 0
-171 -178 0
-171 -179 0
-171 -180 0
-172 -173 0
-172 -174 0
-172 -175 0
-172 -176 0
-172 -177 0
-172 -178 0
-172 -179 0
-172 -180 0
-173 -174 0
-173 -175 0
-173 -176 0
-173 -177 0
-173 -178 0
-173 -179 0
-173 -180 0
-174 -175 0
-174 -176 0
-174 -177 0
-174 -178 0
-174 -179 0
-174 -180 0
-175 -176 0
-175 -177 0
-175 -178 0
-175 -179 0
-175 -180 0
-176 -177 0
-176 -178 0
-176 -179 0
-176 -180 0
-177 -178 0
-177 -179 0
-177 -180 0
-178 -179 0
-178 -180 0
-179 -180 0
-514 490 166 0
-515 491 0
-516 492 167 0
-517 493 168 0
-518 494 169 0
-519 495 170 0
-520 496 171 0
-521 497 172 0
-522 498 0
-523 499 173 0
-524 500 174 0
-525 501 0
-526 502 0
-527 503 175 0
-528 504 176 0
-529 505 177 0
-530 506 178 0
-531 507 179 0
-532 508 0
-533 509 0
-534 510 180 0
-535 511 0
-536 512 0
-537 513 0
-181 -182 0
-181 -183 0
-181 -184 0
-181 -185 0
-181 -186 0
-181 -187 0
-181 -188 0
-181 -189 0
-181 -190 0
-181 -191 0
-181 -192 0
-181 -193 0
-181 -194 0
-181 -195 0
-182 -183 0
-182 -184 0
-182 -185 0
-182 -186 0
-182 -187 0
-182 -188 0
-182 -189 0
-182 -190 0
-182 -191 0
-182 -192 0
-182 -193 0
-182 -194 0
-182 -195 0
-183 -184 0
-183 -185 0
-183 -186 0
-183 -187 0
-183 -188 0
-183 -189 0
-183 -190 0
-183 -191 0
-183 -192 0
-183 -193 0
-183 -194 0
-183 -195 0
-184 -185 0
-184 -186 0
-184 -187 0
-184 -188 0
-184 -189 0
-184 -190 0
-184 -191 0
-184 -192 0
-184 -193 0
-184 -194 0
-184 -195 0
-185 -186 0
-185 -187 0
-185 -188 0
-185 -189 0
-185 -190 0
-185 -191 0
-185 -192 0
-185 -193 0
-185 -194 0
-185 -195 0
-186 -187 0
-186 -188 0
-186 -189 0
-186 -190 0
-186 -191 0
-186 -192 0
-186 -193 0
-186 -194 0
-186 -195 0
-187 -188 0
-187 -189 0
-187 -190 0
-187 -191 0
-187 -192 0
-187 -193 0
-187 -194 0
-187 -195 0
-188 -189 0
-188 -190 0
-188 -191 0
-188 -192 0
-188 -193 0
-188 -194 0
-188 -195 0
-189 -190 0
-189 -191 0
-189 -192 0
-189 -193 0
-189 -194 0
-189 -195 0
-190 -191 0
-190 -192 0
-190 -193 0
-190 -194 0
-190 -195 0
-191 -192 0
-191 -193 0
-191 -194 0
-191 -195 0
-192 -193 0
-192 -194 0
-192 -195 0
-193 -194 0
-193 -195 0
-194 -195 0
-538 514 181 0
-539 515 0
-540 516 182 0
-541 517 183 0
-542 518 184 0
-543 519 185 0
-544 520 186 0
-545 521 187 0
-546 522 0
-547 523 188 0
-548 524 189 0
-549 525 0
-550 526 0
-551 527 190 0
-552 528 191 0
-553 529 192 0
-554 530 193 0
-555 531 194 0
-556 532 0
-557 533 0
-558 534 195 0
-559 535 0
-560 536 0
-561 537 0
-196 -197 0
-196 -198 0
-196 -199 0
-196 -200 0
-196 -201 0
-196 -202 0
-196 -203 0
-196 -204 0
-196 -205 0
-196 -206 0
-196 -207 0
-196 -208 0
-196 -209 0
-196 -210 0
-197 -198 0
-197 -199 0
-197 -200 0
-197 -201 0
-197 -202 0
-197 -203 0
-197 -204 0
-197 -205 0
-197 -206 0
-197 -207 0
-197 -208 0
-197 -209 0
-197 -210 0
-198 -199 0
-198 -200 0
-198 -201 0
-198 -202 0
-198 -203 0
-198 -204 0
-198 -205 0
-198 -206 0
-198 -207 0
-198 -208 0
-198 -209 0
-198 -210 0
-199 -200 0
-199 -201 0
-199 -202 0
-199 -203 0
-199 -204 0
-199 -205 0
-199 -206 0
-199 -207 0
-199 -208 0
-199 -209 0
-199 -210 0
-200 -201 0
-200 -202 0
-200 -203 0
-200 -204 0
-200 -205 0
-200 -206 0
-200 -207 0
-200 -208 0
-200 -209 0
-200 -210 0
-201 -202 0
-201 -203 0
-201 -204 0
-201 -205 0
-201 -206 0
-201 -207 0
-201 -208 0
-201 -209 0
-201 -210 0
-202 -203 0
-202 -204 0
-202 -205 0
-202 -206 0
-202 -207 0
-202 -208 0
-202 -209 0
-202 -210 0
-203 -204 0
-203 -205 0
-203 -206 0
-203 -207 0
-203 -208 0
-203 -209 0
-203 -210 0
-204 -205 0
-204 -206 0
-204 -207 0
-204 -208 0
-204 -209 0
-204 -210 0
-205 -206 0
-205 -207 0
-205 -208 0
-205 -209 0
-205 -210 0
-206 -207 0
-206 -208 0
-206 -209 0
-206 -210 0
-207 -208 0
-207 -209 0
-207 -210 0
-208 -209 0
-208 -210 0
-209 -210 0
-562 538 196 0
-563 539 0
-564 540 197 0
-565 541 198 0
-566 542 199 0
-567 543 200 0
-568 544 201 0
-569 545 202 0
-570 546 0
-571 547 203 0
-572 548 204 0
-573 549 0
-574 550 0
-575 551 205 0
-576 552 206 0
-577 553 207 0
-578 554 208 0
-579 555 209 0
-580 556 0
-581 557 0
-582 558 210 0
-583 559 0
-584 560 0
-585 561 0
-211 -212 0
-211 -213 0
-211 -214 0
-211 -215 0
-211 -216 0
-211 -217 0
-211 -218 0
-211 -219 0
-211 -220 0
-211 -221 0
-211 -222 0
-211 -223 0
-211 -224 0
-211 -225 0
-212 -213 0
-212 -214 0
-212 -215 0
-212 -216 0
-212 -217 0
-212 -218 0
-212 -219 0
-212 -220 0
-212 -221 0
-212 -222 0
-212 -223 0
-212 -224 0
-212 -225 0
-213 -214 0
-213 -215 0
-213 -216 0
-213 -217 0
-213 -218 0
-213 -219 0
-213 -220 0
-213 -221 0
-213 -222 0
-213 -223 0
-213 -224 0
-213 -225 0
-214 -215 0
-214 -216 0
-214 -217 0
-214 -218 0
-214 -219 0
-214 -220 0
-214 -221 0
-214 -222 0
-214 -223 0
-214 -224 0
-214 -225 0
-215 -216 0
-215 -217 0
-215 -218 0
-215 -219 0
-215 -220 0
-215 -221 0
-215 -222 0
-215 -223 0
-215 -224 0
-215 -225 0
-216 -217 0
-216 -218 0
-216 -219 0
-216 -220 0
-216 -221 0
-216 -222 0
-216 -223 0
-216 -224 0
-216 -225 0
-217 -218 0
-217 -219 0
-217 -220 0
-217 -221 0
-217 -222 0
-217 -223 0
-217 -224 0
-217 -225 0
-218 -219 0
-218 -220 0
-218 -221 0
-218 -222 0
-218 -223 0
-218 -224 0
-218 -225 0
-219 -220 0
-219 -221 0
-219 -222 0
-219 -223 0
-219 -224 0
-219 -225 0
-220 -221 0
-220 -222 0
-220 -223 0
-220 -224 0
-220 -225 0
-221 -222 0
-221 -223 0
-221 -224 0
-221 -225 0
-222 -223 0
-222 -224 0
-222 -225 0
-223 -224 0
-223 -225 0
-224 -225 0
-586 562 211 0
-587 563 0
-588 564 212 0
-589 565 213 0
-590 566 214 0
-591 567 215 0
-592 568 216 0
-593 569 217 0
-594 570 0
-595 571 218 0
-596 572 219 0
-597 573 0
-598 574 0
-599 575 220 0
-600 576 221 0
-601 577 222 0
-602 578 223 0
-603 579 224 0
-604 580 0
-605 581 0
-606 582 225 0
-607 583 0
-608 584 0
-609 585 0
-226 0
227 0
-228 0
-229 0
-230 0
-231 0
-232 0
-233 0
234 0
-235 0
-236 0
237 0
238 0
-239 0
-240 0
-241 0
-242 0
-243 0
244 0
245 0
-246 0
247 0
248 0
249 0
1 16 31 46 61 76 91 106 121 136 151 166 181 196 211 0
2 17 32 47 62 77 92 107 122 137 152 167 182 197 212 0
3 18 33 48 63 78 93 108 123 138 153 168 183 198 213 0
4 19 34 49 64 79 94 109 124 139 154 169 184 199 214 0
5 20 35 50 65 80 95 110 125 140 155 170 185 200 215 0
6 21 36 51 66 81 96 111 126 141 156 171 186 201 216 0
7 22 37 52 67 82 97 112 127 142 157 172 187 202 217 0
8 23 38 53 68 83 98 113 128 143 158 173 188 203 218 0
9 24 39 54 69 84 99 114 129 144 159 174 189 204 219 0
10 25 40 55 70 85 100 115 130 145 160 175 190 205 220 0
11 26 41 56 71 86 101 116 131 146 161 176 191 206 221 0
12 27 42 57 72 87 102 117 132 147 162 177 192 207 222 0
13 28 43 58 73 88 103 118 133 148 163 178 193 208 223 0
14 29 44 59 74 89 104 119 134 149 164 179 194 209 224 0
15 30 45 60 75 90 105 120 135 150 165 180 195 210 225 0
-1 0
-610 229 0
-610 249 0
-611 229 0
-611 249 0
-612 230 0
-612 246 0
-613 230 0
-613 246 0
-2 610 611 612 613 0
-614 228 0
-614 249 0
-615 228 0
-615 249 0
-616 230 0
-616 247 0
-617 230 0
-617 247 0
-3 614 615 616 617 0
-618 227 0
-618 238 0
-619 227 0
-619 238 0
-620 228 0
-620 246 0
-621 228 0
-621 246 0
-622 229 0
-622 247 0
-623 229 0
-623 247 0
-624 231 0
-624 236 0
-625 231 0
-625 236 0
-4 618 619 620 621 622 623 624 625 0
-626 227 0
-626 234 0
-627 227 0
-627 234 0
-628 230 0
-628 236 0
-629 230 0
-629 236 0
-5 626 627 628 629 0
-630 234 0
-630 237 0
-631 234 0
-631 237 0
-6 630 631 0
-632 234 0
-632 245 0
-633 234 0
-633 245 0
-634 235 0
-634 241 0
-635 235 0
-635 241 0
-7 632 633 634 635 0
-636 233 0
-636 241 0
-637 233 0
-637 241 0
-638 234 0
-638 244 0
-639 234 0
-639 244 0
-8 636 637 638 639 0
-640 230 0
-640 231 0
-641 230 0
-641 231 0
-642 234 0
-642 238 0
-643 234 0
-643 238 0
-9 640 641 642 643 0
-10 0
-644 243 0
-644 247 0
-645 243 0
-645 247 0
-11 644 645 0
-646 233 0
-646 235 0
-647 233 0
-647 235 0
-648 242 0
-648 248 0
-649 242 0
-649 248 0
-650 244 0
-650 245 0
-651 244 0
-651 245 0
-12 646 647 648 649 650 651 0
-652 241 0
-652 248 0
-653 241 0
-653 248 0
-654 243 0
-654 249 0
-655 243 0
-655 249 0
-13 652 653 654 655 0
-656 240 0
-656 247 0
-657 240 0
-657 247 0
-658 242 0
-658 249 0
-659 242 0
-659 249 0
-14 656 657 658 659 0
-660 228 0
-660 230 0
-661 228 0
-661 230 0
-662 247 0
-662 249 0
-663 247 0
-663 249 0
-15 660 661 662 663 0
-16 0
-664 253 0
-664 273 0
-665 253 0
-665 273 0
-666 254 0
-666 270 0
-667 254 0
-667 270 0
-17 664 665 666 667 0
-668 252 0
-668 273 0
-669 252 0
-669 273 0
-670 254 0
-670 271 0
-671 254 0
-671 271 0
-18 668 669 670 671 0
-672 251 0
-672 262 0
-673 251 0
-673 262 0
-674 252 0
-674 270 0
-675 252 0
-675 270 0
-676 253 0
-676 271 0
-677 253 0
-677 271 0
-678 255 0
-678 260 0
-679 255 0
-679 260 0
-19 672 673 674 675 676 677 678 679 0
-680 251 0
-680 258 0
-681 251 0
-681 258 0
-682 254 0
-682 260 0
-683 254 0
-683 260 0
-20 680 681 682 683 0
-684 258 0
-684 261 0
-685 258 0
-685 261 0
-21 684 685 0
-686 258 0
-686 269 0
-687 258 0
-687 269 0
-688 259 0
-688 265 0
-689 259 0
-689 265 0
-22 686 687 688 689 0
-690 257 0
-690 265 0
-691 257 0
-691 265 0
-692 258 0
-692 268 0
-693 258 0
-693 268 0
-23 690 691 692 693 0
-694 254 0
-694 255 0
-695 254 0
-695 255 0
-696 258 0
-696 262 0
-697 258 0
-697 262 0
-24 694 695 696 697 0
-25 0
-698 267 0
-698 271 0
-699 267 0
-699 271 0
-26 698 699 0
-700 257 0
-700 259 0
-701 257 0
-701 259 0
-702 266 0
-702 272 0
-703 266 0
-703 272 0
-704 268 0
-704 269 0
-705 268 0
-705 269 0
-27 700 701 702 703 704 705 0
-706 265 0
-706 272 0
-707 265 0
-707 272 0
-708 267 0
-708 273 0
-709 267 0
-709 273 0
-28 706 707 708 709 0
-710 264 0
-710 271 0
-711 264 0
-711 271 0
-712 266 0
-712 273 0
-713 266 0
-713 273 0
-29 710 711 712 713 0
-714 252 0
-714 254 0
-715 252 0
-715 254 0
-716 271 0
-716 273 0
-717 271 0
-717 273 0
-30 714 715 716 717 0
-31 0
-718 277 0
-718 297 0
-719 277 0
-719 297 0
-720 278 0
-720 294 0
-721 278 0
-721 294 0
-32 718 719 720 721 0
-722 276 0
-722 297 0
-723 276 0
-723 297 0
-724 278 0
-724 295 0
-725 278 0
-725 295 0
-33 722 723 724 725 0
-726 275 0
-726 286 0
-727 275 0
-727 286 0
-728 276 0
-728 294 0
-729 276 0
-729 294 0
-730 277 0
-730 295 0
-731 277 0
-731 295 0
-732 279 0
-732 284 0
-733 279 0
-733 284 0
-34 726 727 728 729 730 731 732 733 0
-734 275 0
-734 282 0
-735 275 0
-735 282 0
-736 278 0
-736 284 0
-737 278 0
-737 284 0
-35 734 735 736 737 0
-738 282 0
-738 285 0
-739 282 0
-739 285 0
-36 738 739 0
-740 282 0
-740 293 0
-741 282 0
-741 293 0
-742 283 0
-742 289 0
-743 283 0
-743 289 0
-37 740 741 742 743 0
-744 281 0
-744 289 0
-745 281 0
-745 289 0
-746 282 0
-746 292 0
-747 282 0
-747 292 0
-38 744 745 746 747 0
-748 278 0
-748 279 0
-749 278 0
-749 279 0
-750 282 0
-750 286 0
-751 282 0
-751 286 0
-39 748 749 750 751 0
-40 0
-752 291 0
-752 295 0
-753 291 0
-753 295 0
-41 752 753 0
-754 281 0
-754 283 0
-755 281 0
-755 283 0
-756 290 0
-756 296 0
-757 290 0
-757 296 0
-758 292 0
-758 293 0
-759 292 0
-759 293 0
-42 754 755 756 757 758 759 0
-760 289 0
-760 296 0
-761 289 0
-761 296 0
-762 291 0
-762 297 0
-763 291 0
-763 297 0
-43 760 761 762 763 0
-764 288 0
-764 295 0
-765 288 0
-765 295 0
-766 290 0
-766 297 0
-767 290 0
-767 297 0
-44 764 765 766 767 0
-768 276 0
-768 278 0
-769 276 0
-769 278 0
-770 295 0
-770 297 0
-771 295 0
-771 297 0
-45 768 769 770 771 0
-46 0
-772 301 0
-772 321 0
-773 301 0
-773 321 0
-774 302 0
-774 318 0
-775 302 0
-775 318 0
-47 772 773 774 775 0
-776 300 0
-776 321 0
-777 300 0
-777 321 0
-778 302 0
-778 319 0
-779 302 0
-779 319 0
-48 776 777 778 779 0
-780 299 0
-780 310 0
-781 299 0
-781 310 0
-782 300 0
-782 318 0
-783 300 0
-783 318 0
-784 301 0
-784 319 0
-785 301 0
-785 319 0
-786 303 0
-786 308 0
-787 303 0
-787 308 0
-49 780 781 782 783 784 785 786 787 0
-788 299 0
-788 306 0
-789 299 0
-789 306 0
-790 302 0
-790 308 0
-791 302 0
-791 308 0
-50 788 789 790 791 0
-792 306 0
-792 309 0
-793 306 0
-793 309 0
-51 792 793 0
-794 306 0
-794 317 0
-795 306 0
-795 317 0
-796 307 0
-796 313 0
-797 307 0
-797 313 0
-52 794 795 796 797 0
-798 305 0
-798 313 0
-799 305 0
-799 313 0
-800 306 0
-800 316 0
-801 306 0
-801 316 0
-53 798 799 800 801 0
-802 302 0
-802 303 0
-803 302 0
-803 303 0
-804 306 0
-804 310 0
-805 306 0
-805 310 0
-54 802 803 804 805 0
-55 0
-806 315 0
-806 319 0
-807 315 0
-807 319 0
-56 806 807 0
-808 305 0
-808 307 0
-809 305 0
-809 307 0
-810 314 0
-810 320 0
-811 314 0
-811 320 0
-812 316 0
-812 317 0
-813 316 0
-813 317 0
-57 808 809 810 811 812 813 0
-814 313 0
-814 320 0
-815 313 0
-815 320 0
-816 315 0
-816 321 0
-817 315 0
-817 321 0
-58 814 815 816 817 0
-818 312 0
-818 319 0
-819 312 0
-819 319 0
-820 314 0
-820 321 0
-821 314 0
-821 321 0
-59 818 819 820 821 0
-822 300 0
-822 302 0
-823 300 0
-823 302 0
-824 319 0
-824 321 0
-825 319 0
-825 321 0
-60 822 823 824 825 0
-61 0
-826 325 0
-826 345 0
-827 325 0
-827 345 0
-828 326 0
-828 342 0
-829 326 0
-829 342 0
-62 826 827 828 829 0
-830 324 0
-830 345 0
-831 324 0
-831 345 0
-832 326 0
-832 343 0
-833 326 0
-833 343 0
-63 830 831 832 833 0
-834 323 0
-834 334 0
-835 323 0
-835 334 0
-836 324 0
-836 342 0
-837 324 0
-837 342 0
-838 325 0
-838 343 0
-839 325 0
-839 343 0
-840 327 0
-840 332 0
-841 327 0
-841 332 0
-64 834 835 836 837 838 839 840 841 0
-842 323 0
-842 330 0
-843 323 0
-843 330 0
-844 326 0
-844 332 0
-845 326 0
-845 332 0
-65 842 843 844 845 0
-846 330 0
-846 333 0
-847 330 0
-847 333 0
-66 846 847 0
-848 330 0
-848 341 0
-849 330 0
-849 341 0
-850 331 0
-850 337 0
-851 331 0
-851 337 0
-67 848 849 850 851 0
-852 329 0
-852 337 0
-853 329 0
-853 337 0
-854 330 0
-854 340 0
-855 330 0
-855 340 0
-68 852 853 854 855 0
-856 326 0
-856 327 0
-857 326 0
-857 327 0
-858 330 0
-858 334 0
-859 330 0
-859 334 0
-69 856 857 858 859 0
-70 0
-860 339 0
-860 343 0
-861 339 0
-861 343 0
-71 860 861 0
-862 329 0
-862 331 0
-863 329 0
-863 331 0
-864 338 0
-864 344 0
-865 338 0
-865 344 0
-866 340 0
-866 341 0
-867 340 0
-867 341 0
-72 862 863 864 865 866 867 0
-868 337 0
-868 344 0
-869 337 0
-869 344 0
-870 339 0
-870 345 0
-871 339 0
-871 345 0
-73 868 869 870 871 0
-872 336 0
-872 343 0
-873 336 0
-873 343 0
-874 338 0
-874 345 0
-875 338 0
-875 345 0
-74 872 873 874 875 0
-876 324 0
-876 326 0
-877 324 0
-877 326 0
-878 343 0
-878 345 0
-879 343 0
-879 345 0
-75 876 877 878 879 0
-76 0
-880 349 0
-880 369 0
-881 349 0
-881 369 0
-882 350 0
-882 366 0
-883 350 0
-883 366 0
-77 880 881 882 883 0
-884 348 0
-884 369 0
-885 348 0
-885 369 0
-886 350 0
-886 367 0
-887 350 0
-887 367 0
-78 884 885 886 887 0
-888 347 0
-888 358 0
-889 347 0
-889 358 0
-890 348 0
-890 366 0
-891 348 0
-891 366 0
-892 349 0
-892 367 0
-893 349 0
-893 367 0
-894 351 0
-894 356 0
-895 351 0
-895 356 0
-79 888 889 890 891 892 893 894 895 0
-896 347 0
-896 354 0
-897 347 0
-897 354 0
-898 350 0
-898 356 0
-899 350 0
-899 356 0
-80 896 897 898 899 0
-900 354 0
-900 357 0
-901 354 0
-901 357 0
-81 900 901 0
-902 354 0
-902 365 0
-903 354 0
-903 365 0
-904 355 0
-904 361 0
-905 355 0
-905 361 0
-82 902 903 904 905 0
-906 353 0
-906 361 0
-907 353 0
-907 361 0
-908 354 0
-908 364 0
-909 354 0
-909 364 0
-83 906 907 908 909 0
-910 350 0
-910 351 0
-911 350 0
-911 351 0
-912 354 0
-912 358 0
-913 354 0
-913 358 0
-84 910 911 912 913 0
-85 0
-914 363 0
-914 367 0
-915 363 0
-915 367 0
-86 914 915 0
-916 353 0
-916 355 0
-917 353 0
-917 355 0
-918 362 0
-918 368 0
-919 362 0
-919 368 0
-920 364 0
-920 365 0
-921 364 0
-921 365 0
-87 916 917 918 919 920 921 0
-922 361 0
-922 368 0
-923 361 0
-923 368 0
-924 363 0
-924 369 0
-925 363 0
-925 369 0
-88 922 923 924 925 0
-926 360 0
-926 367 0
-927 360 0
-927 367 0
-928 362 0
-928 369 0
-929 362 0
-929 369 0
-89 926 927 928 929 0
-930 348 0
-930 350 0
-931 348 0
-931 350 0
-932 367 0
-932 369 0
-933 367 0
-933 369 0
-90 930 931 932 933 0
-91 0
-934 373 0
-934 393 0
-935 373 0
-935 393 0
-936 374 0
-936 390 0
-937 374 0
-937 390 0
-92 934 935 936 937 0
-938 372 0
-938 393 0
-939 372 0
-939 393 0
-940 374 0
-940 391 0
-941 374 0
-941 391 0
-93 938 939 940 941 0
-942 371 0
-942 382 0
-943 371 0
-943 382 0
-944 372 0
-944 390 0
-945 372 0
-945 390 0
-946 373 0
-946 391 0
-947 373 0
-947 391 0
-948 375 0
-948 380 0
-949 375 0
-949 380 0
-94 942 943 944 945 946 947 948 949 0
-950 371 0
-950 378 0
-951 371 0
-951 378 0
-952 374 0
-952 380 0
-953 374 0
-953 380 0
-95 950 951 952 953 0
-954 378 0
-954 381 0
-955 378 0
-955 381 0
-96 954 955 0
-956 378 0
-956 389 0
-957 378 0
-957 389 0
-958 379 0
-958 385 0
-959 379 0
-959 385 0
-97 956 957 958 959 0
-960 377 0
-960 385 0
-961 377 0
-961 385 0
-962 378 0
-962 388 0
-963 378 0
-963 388 0
-98 960 961 962 963 0
-964 374 0
-964 375 0
-965 374 0
-965 375 0
-966 378 0
-966 382 0
-967 378 0
-967 382 0
-99 964 965 966 967 0
-100 0
-968 387 0
-968 391 0
-969 387 0
-969 391 0
-101 968 969 0
-970 377 0
-970 379 0
-971 377 0
-971 379 0
-972 386 0
-972 392 0
-973 386 0
-973 392 0
-974 388 0
-974 389 0
-975 388 0
-975 389 0
-102 970 971 972 973 974 975 0
-976 385 0
-976 392 0
-977 385 0
-977 392 0
-978 387 0
-978 393 0
-979 387 0
-979 393 0
-103 976 977 978 979 0
-980 384 0
-980 391 0
-981 384 0
-981 391 0
-982 386 0
-982 393 0
-983 386 0
-983 393 0
-104 980 981 982 983 0
-984 372 0
-984 374 0
-985 372 0
-985 374 0
-986 391 0
-986 393 0
-987 391 0
-987 393 0
-105 984 985 986 987 0
-106 0
-988 397 0
-988 417 0
-989 397 0
-989 417 0
-990 398 0
-990 414 0
-991 398 0
-991 414 0
-107 988 989 990 991 0
-992 396 0
-992 417 0
-993 396 0
-993 417 0
-994 398 0
-994 415 0
-995 398 0
-995 415 0
-108 992 993 994 995 0
-996 395 0
-996 406 0
-997 395 0
-997 406 0
-998 396 0
-998 414 0
-999 396 0
-999 414 0
-1000 397 0
-1000 415 0
-1001 397 0
-1001 415 0
-1002 399 0
-1002 404 0
-1003 399 0
-1003 404 0
-109 996 997 998 999 1000 1001 1002 1003 0
-1004 395 0
-1004 402 0
-1005 395 0
-1005 402 0
-1006 398 0
-1006 404 0
-1007 398 0
-1007 404 0
-110 1004 1005 1006 1007 0
-1008 402 0
-1008 405 0
-1009 402 0
-1009 405 0
-111 1008 1009 0
-1010 402 0
-1010 413 0
-1011 402 0
-1011 413 0
-1012 403 0
-1012 409 0
-1013 403 0
-1013 409 0
-112 1010 1011 1012 1013 0
-1014 401 0
-1014 409 0
-1015 401 0
-1015 409 0
-1016 402 0
-1016 412 0
-1017 402 0
-1017 412 0
-113 1014 1015 1016 1017 0
-1018 398 0
-1018 399 0
-1019 398 0
-1019 399 0
-1020 402 0
-1020 406 0
-1021 402 0
-1021 406 0
-114 1018 1019 1020 1021 0
-115 0
-1022 411 0
-1022 415 0
-1023 411 0
-1023 415 0
-116 1022 1023 0
-1024 401 0
-1024 403 0
-1025 401 0
-1025 403 0
-1026 410 0
-1026 416 0
-1027 410 0
-1027 416 0
-1028 412 0
-1028 413 0
-1029 412 0
-1029 413 0
-117 1024 1025 1026 1027 1028 1029 0
-1030 409 0
-1030 416 0
-1031 409 0
-1031 416 0
-1032 411 0
-1032 417 0
-1033 411 0
-1033 417 0
-118 1030 1031 1032 1033 0
-1034 408 0
-1034 415 0
-1035 408 0
-1035 415 0
-1036 410 0
-1036 417 0
-1037 410 0
-1037 417 0
-119 1034 1035 1036 1037 0
-1038 396 0
-1038 398 0
-1039 396 0
-1039 398 0
-1040 415 0
-1040 417 0
-1041 415 0
-1041 417 0
-120 1038 1039 1040 1041 0
-121 0
-1042 421 0
-1042 441 0
-1043 421 0
-1043 441 0
-1044 422 0
-1044 438 0
-1045 422 0
-1045 438 0
-122 1042 1043 1044 1045 0
-1046 420 0
-1046 441 0
-1047 420 0
-1047 441 0
-1048 422 0
-1048 439 0
-1049 422 0
-1049 439 0
-123 1046 1047 1048 1049 0
-1050 419 0
-1050 430 0
-1051 419 0
-1051 430 0
-1052 420 0
-1052 438 0
-1053 420 0
-1053 438 0
-1054 421 0
-1054 439 0
-1055 421 0
-1055 439 0
-1056 423 0
-1056 428 0
-1057 423 0
-1057 428 0
-124 1050 1051 1052 1053 1054 1055 1056 1057 0
-1058 419 0
-1058 426 0
-1059 419 0
-1059 426 0
-1060 422 0
-1060 428 0
-1061 422 0
-1061 428 0
-125 1058 1059 1060 1061 0
-1062 426 0
-1062 429 0
-1063 426 0
-1063 429 0
-126 1062 1063 0
-1064 426 0
-1064 437 0
-1065 426 0
-1065 437 0
-1066 427 0
-1066 433 0
-1067 427 0
-1067 433 0
-127 1064 1065 1066 1067 0
-1068 425 0
-1068 433 0
-1069 425 0
-1069 433 0
-1070 426 0
-1070 436 0
-1071 426 0
-1071 436 0
-128 1068 1069 1070 1071 0
-1072 422 0
-1072 423 0
-1073 422 0
-1073 423 0
-1074 426 0
-1074 430 0
-1075 426 0
-1075 430 0
-129 1072 1073 1074 1075 0
-130 0
-1076 435 0
-1076 439 0
-1077 435 0
-1077 439 0
-131 1076 1077 0
-1078 425 0
-1078 427 0
-1079 425 0
-1079 427 0
-1080 434 0
-1080 440 0
-1081 434 0
-1081 440 0
-1082 436 0
-1082 437 0
-1083 436 0
-1083 437 0
-132 1078 1079 1080 1081 1082 1083 0
-1084 433 0
-1084 440 0
-1085 433 0
-1085 440 0
-1086 435 0
-1086 441 0
-1087 435 0
-1087 441 0
-133 1084 1085 1086 1087 0
-1088 432 0
-1088 439 0
-1089 432 0
-1089 439 0
-1090 434 0
-1090 441 0
-1091 434 0
-1091 441 0
-134 1088 1089 1090 1091 0
-1092 420 0
-1092 422 0
-1093 420 0
-1093 422 0
-1094 439 0
-1094 441 0
-1095 439 0
-1095 441 0
-135 1092 1093 1094 1095 0
-136 0
-1096 445 0
-1096 465 0
-1097 445 0
-1097 465 0
-1098 446 0
-1098 462 0
-1099 446 0
-1099 462 0
-137 1096 1097 1098 1099 0
-1100 444 0
-1100 465 0
-1101 444 0
-1101 465 0
-1102 446 0
-1102 463 0
-1103 446 0
-1103 463 0
-138 1100 1101 1102 1103 0
-1104 443 0
-1104 454 0
-1105 443 0
-1105 454 0
-1106 444 0
-1106 462 0
-1107 444 0
-1107 462 0
-1108 445 0
-1108 463 0
-1109 445 0
-1109 463 0
-1110 447 0
-1110 452 0
-1111 447 0
-1111 452 0
-139 1104 1105 1106 1107 1108 1109 1110 1111 0
-1112 443 0
-1112 450 0
-1113 443 0
-1113 450 0
-1114 446 0
-1114 452 0
-1115 446 0
-1115 452 0
-140 1112 1113 1114 1115 0
-1116 450 0
-1116 453 0
-1117 450 0
-1117 453 0
-141 1116 1117 0
-1118 450 0
-1118 461 0
-1119 450 0
-1119 461 0
-1120 451 0
-1120 457 0
-1121 451 0
-1121 457 0
-142 1118 1119 1120 1121 0
-1122 449 0
-1122 457 0
-1123 449 0
-1123 457 0
-1124 450 0
-1124 460 0
-1125 450 0
-1125 460 0
-143 1122 1123 1124 1125 0
-1126 446 0
-1126 447 0
-1127 446 0
-1127 447 0
-1128 450 0
-1128 454 0
-1129 450 0
-1129 454 0
-144 1126 1127 1128 1129 0
-145 0
-1130 459 0
-1130 463 0
-1131 459 0
-1131 463 0
-146 1130 1131 0
-1132 449 0
-1132 451 0
-1133 449 0
-1133 451 0
-1134 458 0
-1134 464 0
-1135 458 0
-1135 464 0
-1136 460 0
-1136 461 0
-1137 460 0
-1137 461 0
-147 1132 1133 1134 1135 1136 1137 0
-1138 457 0
-1138 464 0
-1139 457 0
-1139 464 0
-1140 459 0
-1140 465 0
-1141 459 0
-1141 465 0
-148 1138 1139 1140 1141 0
-1142 456 0
-1142 463 0
-1143 456 0
-1143 463 0
-1144 458 0
-1144 465 0
-1145 458 0
-1145 465 0
-149 1142 1143 1144 1145 0
-1146 444 0
-1146 446 0
-1147 444 0
-1147 446 0
-1148 463 0
-1148 465 0
-1149 463 0
-1149 465 0
-150 1146 1147 1148 1149 0
-151 0
-1150 469 0
-1150 489 0
-1151 469 0
-1151 489 0
-1152 470 0
-1152 486 0
-1153 470 0
-1153 486 0
-152 1150 1151 1152 1153 0
-1154 468 0
-1154 489 0
-1155 468 0
-1155 489 0
-1156 470 0
-1156 487 0
-1157 470 0
-1157 487 0
-153 1154 1155 1156 1157 0
-1158 467 0
-1158 478 0
-1159 467 0
-1159 478 0
-1160 468 0
-1160 486 0
-1161 468 0
-1161 486 0
-1162 469 0
-1162 487 0
-1163 469 0
-1163 487 0
-1164 471 0
-1164 476 0
-1165 471 0
-1165 476 0
-154 1158 1159 1160 1161 1162 1163 1164 1165 0
-1166 467 0
-1166 474 0
-1167 467 0
-1167 474 0
-1168 470 0
-1168 476 0
-1169 470 0
-1169 476 0
-155 1166 1167 1168 1169 0
-1170 474 0
-1170 477 0
-1171 474 0
-1171 477 0
-156 1170 1171 0
-1172 474 0
-1172 485 0
-1173 474 0
-1173 485 0
-1174 475 0
-1174 481 0
-1175 475 0
-1175 481 0
-157 1172 1173 1174 1175 0
-1176 473 0
-1176 481 0
-1177 473 0
-1177 481 0
-1178 474 0
-1178 484 0
-1179 474 0
-1179 484 0
-158 1176 1177 1178 1179 0
-1180 470 0
-1180 471 0
-1181 470 0
-1181 471 0
-1182 474 0
-1182 478 0
-1183 474 0
-1183 478 0
-159 1180 1181 1182 1183 0
-160 0
-1184 483 0
-1184 487 0
-1185 483 0
-1185 487 0
-161 1184 1185 0
-1186 473 0
-1186 475 0
-1187 473 0
-1187 475 0
-1188 482 0
-1188 488 0
-1189 482 0
-1189 488 0
-1190 484 0
-1190 485 0
-1191 484 0
-1191 485 0
-162 1186 1187 1188 1189 1190 1191 0
-1192 481 0
-1192 488 0
-1193 481 0
-1193 488 0
-1194 483 0
-1194 489 0
-1195 483 0
-1195 489 0
-163 1192 1193 1194 1195 0
-1196 480 0
-1196 487 0
-1197 480 0
-1197 487 0
-1198 482 0
-1198 489 0
-1199 482 0
-1199 489 0
-164 1196 1197 1198 1199 0
-1200 468 0
-1200 470 0
-1201 468 0
-1201 470 0
-1202 487 0
-1202 489 0
-1203 487 0
-1203 489 0
-165 1200 1201 1202 1203 0
-166 0
-1204 493 0
-1204 513 0
-1205 493 0
-1205 513 0
-1206 494 0
-1206 510 0
-1207 494 0
-1207 510 0
-167 1204 1205 1206 1207 0
-1208 492 0
-1208 513 0
-1209 492 0
-1209 513 0
-1210 494 0
-1210 511 0
-1211 494 0
-1211 511 0
-168 1208 1209 1210 1211 0
-1212 491 0
-1212 502 0
-1213 491 0
-1213 502 0
-1214 492 0
-1214 510 0
-1215 492 0
-1215 510 0
-1216 493 0
-1216 511 0
-1217 493 0
-1217 511 0
-1218 495 0
-1218 500 0
-1219 495 0
-1219 500 0
-169 1212 1213 1214 1215 1216 1217 1218 1219 0
-1220 491 0
-1220 498 0
-1221 491 0
-1221 498 0
-1222 494 0
-1222 500 0
-1223 494 0
-1223 500 0
-170 1220 1221 1222 1223 0
-1224 498 0
-1224 501 0
-1225 498 0
-1225 501 0
-171 1224 1225 0
-1226 498 0
-1226 509 0
-1227 498 0
-1227 509 0
-1228 499 0
-1228 505 0
-1229 499 0
-1229 505 0
-172 1226 1227 1228 1229 0
-1230 497 0
-1230 505 0
-1231 497 0
-1231 505 0
-1232 498 0
-1232 508 0
-1233 498 0
-1233 508 0
-173 1230 1231 1232 1233 0
-1234 494 0
-1234 495 0
-1235 494 0
-1235 495 0
-1236 498 0
-1236 502 0
-1237 498 0
-1237 502 0
-174 1234 1235 1236 1237 0
-175 0
-1238 507 0
-1238 511 0
-1239 507 0
-1239 511 0
-176 1238 1239 0
-1240 497 0
-1240 499 0
-1241 497 0
-1241 499 0
-1242 506 0
-1242 512 0
-1243 506 0
-1243 512 0
-1244 508 0
-1244 509 0
-1245 508 0
-1245 509 0
-177 1240 1241 1242 1243 1244 1245 0
-1246 505 0
-1246 512 0
-1247 505 0
-1247 512 0
-1248 507 0
-1248 513 0
-1249 507 0
-1249 513 0
-178 1246 1247 1248 1249 0
-1250 504 0
-1250 511 0
-1251 504 0
-1251 511 0
-1252 506 0
-1252 513 0
-1253 506 0
-1253 513 0
-179 1250 1251 1252 1253 0
-1254 492 0
-1254 494 0
-1255 492 0
-1255 494 0
-1256 511 0
-1256 513 0
-1257 511 0
-1257 513 0
-180 1254 1255 1256 1257 0
-181 0
-1258 517 0
-1258 537 0
-1259 517 0
-1259 537 0
-1260 518 0
-1260 534 0
-1261 518 0
-1261 534 0
-182 1258 1259 1260 1261 0
-1262 516 0
-1262 537 0
-1263 516 0
-1263 537 0
-1264 518 0
-1264 535 0
-1265 518 0
-1265 535 0
-183 1262 1263 1264 1265 0
-1266 515 0
-1266 526 0
-1267 515 0
-1267 526 0
-1268 516 0
-1268 534 0
-1269 516 0
-1269 534 0
-1270 517 0
-1270 535 0
-1271 517 0
-1271 535 0
-1272 519 0
-1272 524 0
-1273 519 0
-1273 524 0
-184 1266 1267 1268 1269 1270 1271 1272 1273 0
-1274 515 0
-1274 522 0
-1275 515 0
-1275 522 0
-1276 518 0
-1276 524 0
-1277 518 0
-1277 524 0
-185 1274 1275 1276 1277 0
-1278 522 0
-1278 525 0
-1279 522 0
-1279 525 0
-186 1278 1279 0
-1280 522 0
-1280 533 0
-1281 522 0
-1281 533 0
-1282 523 0
-1282 529 0
-1283 523 0
-1283 529 0
-187 1280 1281 1282 1283 0
-1284 521 0
-1284 529 0
-1285 521 0
-1285 529 0
-1286 522 0
-1286 532 0
-1287 522 0
-1287 532 0
-188 1284 1285 1286 1287 0
-1288 518 0
-1288 519 0
-1289 518 0
-1289 519 0
-1290 522 0
-1290 526 0
-1291 522 0
-1291 526 0
-189 1288 1289 1290 1291 0
-190 0
-1292 531 0
-1292 535 0
-1293 531 0
-1293 535 0
-191 1292 1293 0
-1294 521 0
-1294 523 0
-1295 521 0
-1295 523 0
-1296 530 0
-1296 536 0
-1297 530 0
-1297 536 0
-1298 532 0
-1298 533 0
-1299 532 0
-1299 533 0
-192 1294 1295 1296 1297 1298 1299 0
-1300 529 0
-1300 536 0
-1301 529 0
-1301 536 0
-1302 531 0
-1302 537 0
-1303 531 0
-1303 537 0
-193 1300 1301 1302 1303 0
-1304 528 0
-1304 535 0
-1305 528 0
-1305 535 0
-1306 530 0
-1306 537 0
-1307 530 0
-1307 537 0
-194 1304 1305 1306 1307 0
-1308 516 0
-1308 518 0
-1309 516 0
-1309 518 0
-1310 535 0
-1310 537 0
-1311 535 0
-1311 537 0
-195 1308 1309 1310 1311 0
-196 0
-1312 541 0
-1312 561 0
-1313 541 0
-1313 561 0
-1314 542 0
-1314 558 0
-1315 542 0
-1315 558 0
-197 1312 1313 1314 1315 0
-1316 540 0
-1316 561 0
-1317 540 0
-1317 561 0
-1318 542 0
-1318 559 0
-1319 542 0
-1319 559 0
-198 1316 1317 1318 1319 0
-1320 539 0
-1320 550 0
-1321 539 0
-1321 550 0
-1322 540 0
-1322 558 0
-1323 540 0
-1323 558 0
-1324 541 0
-1324 559 0
-1325 541 0
-1325 559 0
-1326 543 0
-1326 548 0
-1327 543 0
-1327 548 0
-199 1320 1321 1322 1323 1324 1325 1326 1327 0
-1328 539 0
-1328 546 0
-1329 539 0
-1329 546 0
-1330 542 0
-1330 548 0
-1331 542 0
-1331 548 0
-200 1328 1329 1330 1331 0
-1332 546 0
-1332 549 0
-1333 546 0
-1333 549 0
-201 1332 1333 0
-1334 546 0
-1334 557 0
-1335 546 0
-1335 557 0
-1336 547 0
-1336 553 0
-1337 547 0
-1337 553 0
-202 1334 1335 1336 1337 0
-1338 545 0
-1338 553 0
-1339 545 0
-1339 553 0
-1340 546 0
-1340 556 0
-1341 546 0
-1341 556 0
-203 1338 1339 1340 1341 0
-1342 542 0
-1342 543 0
-1343 542 0
-1343 543 0
-1344 546 0
-1344 550 0
-1345 546 0
-1345 550 0
-204 1342 1343 1344 1345 0
-205 0
-1346 555 0
-1346 559 0
-1347 555 0
-1347 559 0
-206 1346 1347 0
-1348 545 0
-1348 547 0
-1349 545 0
-1349 547 0
-1350 554 0
-1350 560 0
-1351 554 0
-1351 560 0
-1352 556 0
-1352 557 0
-1353 556 0
-1353 557 0
-207 1348 1349 1350 1351 1352 1353 0
-1354 553 0
-1354 560 0
-1355 553 0
-1355 560 0
-1356 555 0
-1356 561 0
-1357 555 0
-1357 561 0
-208 1354 1355 1356 1357 0
-1358 552 0
-1358 559 0
-1359 552 0
-1359 559 0
-1360 554 0
-1360 561 0
-1361 554 0
-1361 561 0
-209 1358 1359 1360 1361 0
-1362 540 0
-1362 542 0
-1363 540 0
-1363 542 0
-1364 559 0
-1364 561 0
-1365 559 0
-1365 561 0
-210 1362 1363 1364 1365 0
-211 0
-1366 565 0
-1366 585 0
-1367 565 0
-1367 585 0
-1368 566 0
-1368 582 0
-1369 566 0
-1369 582 0
-212 1366 1367 1368 1369 0
-1370 564 0
-1370 585 0
-1371 564 0
-1371 585 0
-1372 566 0
-1372 583 0
-1373 566 0
-1373 583 0
-213 1370 1371 1372 1373 0
-1374 563 0
-1374 574 0
-1375 563 0
-1375 574 0
-1376 564 0
-1376 582 0
-1377 564 0
-1377 582 0
-1378 565 0
-1378 583 0
-1379 565 0
-1379 583 0
-1380 567 0
-1380 572 0
-1381 567 0
-1381 572 0
-214 1374 1375 1376 1377 1378 1379 1380 1381 0
-1382 563 0
-1382 570 0
-1383 563 0
-1383 570 0
-1384 566 0
-1384 572 0
-1385 566 0
-1385 572 0
-215 1382 1383 1384 1385 0
-1386 570 0
-1386 573 0
-1387 570 0
-1387 573 0
-216 1386 1387 0
-1388 570 0
-1388 581 0
-1389 570 0
-1389 581 0
-1390 571 0
-1390 577 0
-1391 571 0
-1391 577 0
-217 1388 1389 1390 1391 0
-1392 569 0
-1392 577 0
-1393 569 0
-1393 577 0
-1394 570 0
-1394 580 0
-1395 570 0
-1395 580 0
-218 1392 1393 1394 1395 0
-1396 566 0
-1396 567 0
-1397 566 0
-1397 567 0
-1398 570 0
-1398 574 0
-1399 570 0
-1399 574 0
-219 1396 1397 1398 1399 0
-220 0
-1400 579 0
-1400 583 0
-1401 579 0
-1401 583 0
-221 1400 1401 0
-1402 569 0
-1402 571 0
-1403 569 0
-1403 571 0
-1404 578 0
-1404 584 0
-1405 578 0
-1405 584 0
-1406 580 0
-1406 581 0
-1407 580 0
-1407 581 0
-222 1402 1403 1404 1405 1406 1407 0
-1408 577 0
-1408 584 0
-1409 577 0
-1409 584 0
-1410 579 0
-1410 585 0
-1411 579 0
-1411 585 0
-223 1408 1409 1410 1411 0
-1412 576 0
-1412 583 0
-1413 576 0
-1413 583 0
-1414 578 0
-1414 585 0
-1415 578 0
-1415 585 0
-224 1412 1413 1414 1415 0
-1416 564 0
-1416 566 0
-1417 564 0
-1417 566 0
-1418 583 0
-1418 585 0
-1419 583 0
-1419 585 0
-225 1416 1417 1418 1419 0
