p cnf 1449 3879
-1 -2 0
-1 -3 0
-1 -4 0
-1 -5 0
-1 -6 0
-1 -7 0
-1 -8 0
-1 -9 0
-1 -10 0
-1 -11 0
-1 -12 0
-1 -13 0
-1 -14 0
-1 -15 0
-2 -3 0
-2 -4 0
-2 -5 0
-2 -6 0
-2 -7 0
-2 -8 0
-2 -9 0
-2 -10 0
-2 -11 0
-2 -12 0
-2 -13 0
-2 -14 0
-2 -15 0
-3 -4 0
-3 -5 0
-3 -6 0
-3 -7 0
-3 -8 0
-3 -9 0
-3 -10 0
-3 -11 0
-3 -12 0
-3 -13 0
-3 -14 0
-3 -15 0
-4 -5 0
-4 -6 0
-4 -7 0
-4 -8 0
-4 -9 0
-4 -10 0
-4 -11 0
-4 -12 0
-4 -13 0
-4 -14 0
-4 -15 0
-5 -6 0
-5 -7 0
-5 -8 0
-5 -9 0
-5 -10 0
-5 -11 0
-5 -12 0
-5 -13 0
-5 -14 0
-5 -15 0
-6 -7 0
-6 -8 0
-6 -9 0
-6 -10 0
-6 -11 0
-6 -12 0
-6 -13 0
-6 -14 0
-6 -15 0
-7 -8 0
-7 -9 0
-7 -10 0
-7 -11 0
-7 -12 0
-7 -13 0
-7 -14 0
-7 -15 0
-8 -9 0
-8 -10 0
-8 -11 0
-8 -12 0
-8 -13 0
-8 -14 0
-8 -15 0
-9 -10 0
-9 -11 0
-9 -12 0
-9 -13 0
-9 -14 0
-9 -15 0
-10 -11 0
-10 -12 0
-10 -13 0
-10 -14 0
-10 -15 0
-11 -12 0
-11 -13 0
-11 -14 0
-11 -15 0
-12 -13 0
-12 -14 0
-12 -15 0
-13 -14 0
-13 -15 0
-14 -15 0
-250 226 1 0
-251 227 2 0
-252 228 0
-253 229 3 0
-254 230 4 0
-255 231 5 0
-256 232 6 0
-257 233 7 0
-258 234 8 0
-259 235 0
-260 236 9 0
-261 237 10 0
-262 238 0
-263 239 0
-264 240 11 0
-265 241 12 0
-266 242 13 0
-267 243 14 0
-268 244 0
-269 245 0
-270 246 15 0
-271 247 0
-272 248 0
-273 249 0
-16 -17 0
-16 -18 0
-16 -19 0
-16 -20 0
-16 -21 0
-16 -22 0
-16 -23 0
-16 -24 0
-16 -25 0
-16 -26 0
-16 -27 0
-16 -28 0
-16 -29 0
-16 -30 0
-17 -18 0
-17 -19 0
-17 -20 0
-17 -21 0
-17 -22 0
-17 -23 0
-17 -24 0
-17 -25 0
-17 -26 0
-17 -27 0
-17 -28 0
-17 -29 0
-17 -30 0
-18 -19 0
-18 -20 0
-18 -21 0
-18 -22 0
-18 -23 0
-18 -24 0
-18 -25 0
-18 -26 0
-18 -27 0
-18 -28 0
-18 -29 0
-18 -30 0
-19 -20 0
-19 -21 0
-19 -22 0
-19 -23 0
-19 -24 0
-19 -25 0
-19 -26 0
-19 -27 0
-19 -28 0
-19 -29 0
-19 -30 0
-20 -21 0
-20 -22 0
-20 -23 0
-20 -24 0
-20 -25 0
-20 -26 0
-20 -27 0
-20 -28 0
-20 -29 0
-20 -30 0
-21 -22 0
-21 -23 0
-21 -24 0
-21 -25 0
-21 -26 0
-21 -27 0
-21 -28 0
-21 -29 0
-21 -30 0
-22 -23 0
-22 -24 0
-22 -25 0
-22 -26 0
-22 -27 0
-22 -28 0
-22 -29 0
-22 -30 0
-23 -24 0
-23 -25 0
-23 -26 0
-23 -27 0
-23 -28 0
-23 -29 0
-23 -30 0
-24 -25 0
-24 -26 0
-24 -27 0
-24 -28 0
-24 -29 0
-24 -30 0
-25 -26 0
-25 -27 0
-25 -28 0
-25 -29 0
-25 -30 0
-26 -27 0
-26 -28 0
-26 -29 0
-26 -30 0
-27 -28 0
-27 -29 0
-27 -30 0
-28 -29 0
-28 -30 0
-29 -30 0
-274 250 16 0
-275 251 17 0
-276 252 0
-277 253 18 0
-278 254 19 0
-279 255 20 0
-280 256 21 0
-281 257 22 0
-282 258 23 0
-283 259 0
-284 260 24 0
-285 261 25 0
-286 262 0
-287 263 0
-288 264 26 0
-289 265 27 0
-290 266 28 0
-291 267 29 0
-292 268 0
-293 269 0
-294 270 30 0
-295 271 0
-296 272 0
-297 273 0
-31 -32 0
-31 -33 0
-31 -34 0
-31 -35 0
-31 -36 0
-31 -37 0
-31 -38 0
-31 -39 0
-31 -40 0
-31 -41 0
-31 -42 0
-31 -43 0
-31 -44 0
-31 -45 0
-32 -33 0
-32 -34 0
-32 -35 0
-32 -36 0
-32 -37 0
-32 -38 0
-32 -39 0
-32 -40 0
-32 -41 0
-32 -42 0
-32 -43 0
-32 -44 0
-32 -45 0
-33 -34 0
-33 -35 0
-33 -36 0
-33 -37 0
-33 -38 0
-33 -39 0
-33 -40 0
-33 -41 0
-33 -42 0
-33 -43 0
-33 -44 0
-33 -45 0
-34 -35 0
-34 -36 0
-34 -37 0
-34 -38 0
-34 -39 0
-34 -40 0
-34 -41 0
-34 -42 0
-34 -43 0
-34 -44 0
-34 -45 0
-35 -36 0
-35 -37 0
-35 -38 0
-35 -39 0
-35 -40 0
-35 -41 0
-35 -42 0
-35 -43 0
-35 -44 0
-35 -45 0
-36 -37 0
-36 -38 0
-36 -39 0
-36 -40 0
-36 -41 0
-36 -42 0
-36 -43 0
-36 -44 0
-36 -45 0
-37 -38 0
-37 -39 0
-37 -40 0
-37 -41 0
-37 -42 0
-37 -43 0
-37 -44 0
-37 -45 0
-38 -39 0
-38 -40 0
-38 -41 0
-38 -42 0
-38 -43 0
-38 -44 0
-38 -45 0
-39 -40 0
-39 -41 0
-39 -42 0
-39 -43 0
-39 -44 0
-39 -45 0
-40 -41 0
-40 -42 0
-40 -43 0
-40 -44 0
-40 -45 0
-41 -42 0
-41 -43 0
-41 -44 0
-41 -45 0
-42 -43 0
-42 -44 0
-42 -45 0
-43 -44 0
-43 -45 0
-44 -45 0
-298 274 31 0
-299 275 32 0
-300 276 0
-301 277 33 0
-302 278 34 0
-303 279 35 0
-304 280 36 0
-305 281 37 0
-306 282 38 0
-307 283 0
-308 284 39 0
-309 285 40 0
-310 286 0
-311 287 0
-312 288 41 0
-313 289 42 0
-314 290 43 0
-315 291 44 0
-316 292 0
-317 293 0
-318 294 45 0
-319 295 0
-320 296 0
-321 297 0
-46 -47 0
-46 -48 0
-46 -49 0
-46 -50 0
-46 -51 0
-46 -52 0
-46 -53 0
-46 -54 0
-46 -55 0
-46 -56 0
-46 -57 0
-46 -58 0
-46 -59 0
-46 -60 0
-47 -48 0
-47 -49 0
-47 -50 0
-47 -51 0
-47 -52 0
-47 -53 0
-47 -54 0
-47 -55 0
-47 -56 0
-47 -57 0
-47 -58 0
-47 -59 0
-47 -60 0
-48 -49 0
-48 -50 0
-48 -51 0
-48 -52 0
-48 -53 0
-48 -54 0
-48 -55 0
-48 -56 0
-48 -57 0
-48 -58 0
-48 -59 0
-48 -60 0
-49 -50 0
-49 -51 0
-49 -52 0
-49 -53 0
-49 -54 0
-49 -55 0
-49 -56 0
-49 -57 0
-49 -58 0
-49 -59 0
-49 -60 0
-50 -51 0
-50 -52 0
-50 -53 0
-50 -54 0
-50 -55 0
-50 -56 0
-50 -57 0
-50 -58 0
-50 -59 0
-50 -60 0
-51 -52 0
-51 -53 0
-51 -54 0
-51 -55 0
-51 -56 0
-51 -57 0
-51 -58 0
-51 -59 0
-51 -60 0
-52 -53 0
-52 -54 0
-52 -55 0
-52 -56 0
-52 -57 0
-52 -58 0
-52 -59 0
-52 -60 0
-53 -54 0
-53 -55 0
-53 -56 0
-53 -57 0
-53 -58 0
-53 -59 0
-53 -60 0
-54 -55 0
-54 -56 0
-54 -57 0
-54 -58 0
-54 -59 0
-54 -60 0
-55 -56 0
-55 -57 0
-55 -58 0
-55 -59 0
-55 -60 0
-56 -57 0
-56 -58 0
-56 -59 0
-56 -60 0
-57 -58 0
-57 -59 0
-57 -60 0
-58 -59 0
-58 -60 0
-59 -60 0
-322 298 46 0
-323 299 47 0
-324 300 0
-325 301 48 0
-326 302 49 0
-327 303 50 0
-328 304 51 0
-329 305 52 0
-330 306 53 0
-331 307 0
-332 308 54 0
-333 309 55 0
-334 310 0
-335 311 0
-336 312 56 0
-337 313 57 0
-338 314 58 0
-339 315 59 0
-340 316 0
-341 317 0
-342 318 60 0
-343 319 0
-344 320 0
-345 321 0
-61 -62 0
-61 -63 0
-61 -64 0
-61 -65 0
-61 -66 0
-61 -67 0
-61 -68 0
-61 -69 0
-61 -70 0
-61 -71 0
-61 -72 0
-61 -73 0
-61 -74 0
-61 -75 0
-62 -63 0
-62 -64 0
-62 -65 0
-62 -66 0
-62 -67 0
-62 -68 0
-62 -69 0
-62 -70 0
-62 -71 0
-62 -72 0
-62 -73 0
-62 -74 0
-62 -75 0
-63 -64 0
-63 -65 0
-63 -66 0
-63 -67 0
-63 -68 0
-63 -69 0
-63 -70 0
-63 -71 0
-63 -72 0
-63 -73 0
-63 -74 0
-63 -75 0
-64 -65 0
-64 -66 0
-64 -67 0
-64 -68 0
-64 -69 0
-64 -70 0
-64 -71 0
-64 -72 0
-64 -73 0
-64 -74 0
-64 -75 0
-65 -66 0
-65 -67 0
-65 -68 0
-65 -69 0
-65 -70 0
-65 -71 0
-65 -72 0
-65 -73 0
-65 -74 0
-65 -75 0
-66 -67 0
-66 -68 0
-66 -69 0
-66 -70 0
-66 -71 0
-66 -72 0
-66 -73 0
-66 -74 0
-66 -75 0
-67 -68 0
-67 -69 0
-67 -70 0
-67 -71 0
-67 -72 0
-67 -73 0
-67 -74 0
-67 -75 0
-68 -69 0
-68 -70 0
-68 -71 0
-68 -72 0
-68 -73 0
-68 -74 0
-68 -75 0
-69 -70 0
-69 -71 0
-69 -72 0
-69 -73 0
-69 -74 0
-69 -75 0
-70 -71 0
-70 -72 0
-70 -73 0
-70 -74 0
-70 -75 0
-71 -72 0
-71 -73 0
-71 -74 0
-71 -75 0
-72 -73 0
-72 -74 0
-72 -75 0
-73 -74 0
-73 -75 0
-74 -75 0
-346 322 61 0
-347 323 62 0
-348 324 0
-349 325 63 0
-350 326 64 0
-351 327 65 0
-352 328 66 0
-353 329 67 0
-354 330 68 0
-355 331 0
-356 332 69 0
-357 333 70 0
-358 334 0
-359 335 0
-360 336 71 0
-361 337 72 0
-362 338 73 0
-363 339 74 0
-364 340 0
-365 341 0
-366 342 75 0
-367 343 0
-368 344 0
-369 345 0
-76 -77 0
-76 -78 0
-76 -79 0
-76 -80 0
-76 -81 0
-76 -82 0
-76 -83 0
-76 -84 0
-76 -85 0
-76 -86 0
-76 -87 0
-76 -88 0
-76 -89 0
-76 -90 0
-77 -78 0
-77 -79 0
-77 -80 0
-77 -81 0
-77 -82 0
-77 -83 0
-77 -84 0
-77 -85 0
-77 -86 0
-77 -87 0
-77 -88 0
-77 -89 0
-77 -90 0
-78 -79 0
-78 -80 0
-78 -81 0
-78 -82 0
-78 -83 0
-78 -84 0
-78 -85 0
-78 -86 0
-78 -87 0
-78 -88 0
-78 -89 0
-78 -90 0
-79 -80 0
-79 -81 0
-79 -82 0
-79 -83 0
-79 -84 0
-79 -85 0
-79 -86 0
-79 -87 0
-79 -88 0
-79 -89 0
-79 -90 0
-80 -81 0
-80 -82 0
-80 -83 0
-80 -84 0
-80 -85 0
-80 -86 0
-80 -87 0
-80 -88 0
-80 -89 0
-80 -90 0
-81 -82 0
-81 -83 0
-81 -84 0
-81 -85 0
-81 -86 0
-81 -87 0
-81 -88 0
-81 -89 0
-81 -90 0
-82 -83 0
-82 -84 0
-82 -85 0
-82 -86 0
-82 -87 0
-82 -88 0
-82 -89 0
-82 -90 0
-83 -84 0
-83 -85 0
-83 -86 0
-83 -87 0
-83 -88 0
-83 -89 0
-83 -90 0
-84 -85 0
-84 -86 0
-84 -87 0
-84 -88 0
-84 -89 0
-84 -90 0
-85 -86 0
-85 -87 0
-85 -88 0
-85 -89 0
-85 -90 0
-86 -87 0
-86 -88 0
-86 -89 0
-86 -90 0
-87 -88 0
-87 -89 0
-87 -90 0
-88 -89 0
-88 -90 0
-89 -90 0
-370 346 76 0
-371 347 77 0
-372 348 0
-373 349 78 0
-374 350 79 0
-375 351 80 0
-376 352 81 0
-377 353 82 0
-378 354 83 0
-379 355 0
-380 356 84 0
-381 357 85 0
-382 358 0
-383 359 0
-384 360 86 0
-385 361 87 0
-386 362 88 0
-387 363 89 0
-388 364 0
-389 365 0
-390 366 90 0
-391 367 0
-392 368 0
-393 369 0
-91 -92 0
-91 -93 0
-91 -94 0
-91 -95 0
-91 -96 0
-91 -97 0
-91 -98 0
-91 -99 0
-91 -100 0
-91 -101 0
-91 -102 0
-91 -103 0
-91 -104 0
-91 -105 0
-92 -93 0
-92 -94 0
-92 -95 0
-92 -96 0
-92 -97 0
-92 -98 0
-92 -99 0
-92 -100 0
-92 -101 0
-92 -102 0
-92 -103 0
-92 -104 0
-92 -105 0
-93 -94 0
-93 -95 0
-93 -96 0
-93 -97 0
-93 -98 0
-93 -99 0
-93 -100 0
-93 -101 0
-93 -102 0
-93 -103 0
-93 -104 0
-93 -105 0
-94 -95 0
-94 -96 0
-94 -97 0
-94 -98 0
-94 -99 0
-94 -100 0
-94 -101 0
-94 -102 0
-94 -103 0
-94 -104 0
-94 -105 0
-95 -96 0
-95 -97 0
-95 -98 0
-95 -99 0
-95 -100 0
-95 -101 0
-95 -102 0
-95 -103 0
-95 -104 0
-95 -105 0
-96 -97 0
-96 -98 0
-96 -99 0
-96 -100 0
-96 -101 0
-96 -102 0
-96 -103 0
-96 -104 0
-96 -105 0
-97 -98 0
-97 -99 0
-97 -100 0
-97 -101 0
-97 -102 0
-97 -103 0
-97 -104 0
-97 -105 0
-98 -99 0
-98 -100 0
-98 -101 0
-98 -102 0
-98 -103 0
-98 -104 0
-98 -105 0
-99 -100 0
-99 -101 0
-99 -102 0
-99 -103 0
-99 -104 0
-99 -105 0
-100 -101 0
-100 -102 0
-100 -103 0
-100 -104 0
-100 -105 0
-101 -102 0
-101 -103 0
-101 -104 0
-101 -105 0
-102 -103 0
-102 -104 0
-102 -105 0
-103 -104 0
-103 -105 0
-104 -105 0
-394 370 91 0
-395 371 92 0
-396 372 0
-397 373 93 0
-398 374 94 0
-399 375 95 0
-400 376 96 0
-401 377 97 0
-402 378 98 0
-403 379 0
-404 380 99 0
-405 381 100 0
-406 382 0
-407 383 0
-408 384 101 0
-409 385 102 0
-410 386 103 0
-411 387 104 0
-412 388 0
-413 389 0
-414 390 105 0
-415 391 0
-416 392 0
-417 393 0
-106 -107 0
-106 -108 0
-106 -109 0
-106 -110 0
-106 -111 0
-106 -112 0
-106 -113 0
-106 -114 0
-106 -115 0
-106 -116 0
-106 -117 0
-106 -118 0
-106 -119 0
-106 -120 0
-107 -108 0
-107 -109 0
-107 -110 0
-107 -111 0
-107 -112 0
-107 -113 0
-107 -114 0
-107 -115 0
-107 -116 0
-107 -117 0
-107 -118 0
-107 -119 0
-107 -120 0
-108 -109 0
-108 -110 0
-108 -111 0
-108 -112 0
-108 -113 0
-108 -114 0
-108 -115 0
-108 -116 0
-108 -117 0
-108 -118 0
-108 -119 0
-108 -120 0
-109 -110 0
-109 -111 0
-109 -112 0
-109 -113 0
-109 -114 0
-109 -115 0
-109 -116 0
-109 -117 0
-109 -118 0
-109 -119 0
-109 -120 0
-110 -111 0
-110 -112 0
-110 -113 0
-110 -114 0
-110 -115 0
-110 -116 0
-110 -117 0
-110 -118 0
-110 -119 0
-110 -120 0
-111 -112 0
-111 -113 0
-111 -114 0
-111 -115 0
-111 -116 0
-111 -117 0
-111 -118 0
-111 -119 0
-111 -120 0
-112 -113 0
-112 -114 0
-112 -115 0
-112 -116 0
-112 -117 0
-112 -118 0
-112 -119 0
-112 -120 0
-113 -114 0
-113 -115 0
-113 -116 0
-113 -117 0
-113 -118 0
-113 -119 0
-113 -120 0
-114 -115 0
-114 -116 0
-114 -117 0
-114 -118 0
-114 -119 0
-114 -120 0
-115 -116 0
-115 -117 0
-115 -118 0
-115 -119 0
-115 -120 0
-116 -117 0
-116 -118 0
-116 -119 0
-116 -120 0
-117 -118 0
-117 -119 0
-117 -120 0
-118 -119 0
-118 -120 0
-119 -120 0
-418 394 106 0
-419 395 107 0
-420 396 0
-421 397 108 0
-422 398 109 0
-423 399 110 0
-424 400 111 0
-425 401 112 0
-426 402 113 0
-427 403 0
-428 404 114 0
-429 405 115 0
-430 406 0
-431 407 0
-432 408 116 0
-433 409 117 0
-434 410 118 0
-435 411 119 0
-436 412 0
-437 413 0
-438 414 120 0
-439 415 0
-440 416 0
-441 417 0
-121 -122 0
-121 -123 0
-121 -124 0
-121 -125 0
-121 -126 0
-121 -127 0
-121 -128 0
-121 -129 0
-121 -130 0
-121 -131 0
-121 -132 0
-121 -133 0
-121 -134 0
-121 -135 0
-122 -123 0
-122 -124 0
-122 -125 0
-122 -126 0
-122 -127 0
-122 -128 0
-122 -129 0
-122 -130 0
-122 -131 0
-122 -132 0
-122 -133 0
-122 -134 0
-122 -135 0
-123 -124 0
-123 -125 0
-123 -126 0
-123 -127 0
-123 -128 0
-123 -129 0
-123 -130 0
-123 -131 0
-123 -132 0
-123 -133 0
-123 -134 0
-123 -135 0
-124 -125 0
-124 -126 0
-124 -127 0
-124 -128 0
-124 -129 0
-124 -130 0
-124 -131 0
-124 -132 0
-124 -133 0
-124 -134 0
-124 -135 0
-125 -126 0
-125 -127 0
-125 -128 0
-125 -129 0
-125 -130 0
-125 -131 0
-125 -132 0
-125 -133 0
-125 -134 0
-125 -135 0
-126 -127 0
-126 -128 0
-126 -129 0
-126 -130 0
-126 -131 0
-126 -132 0
-126 -133 0
-126 -134 0
-126 -135 0
-127 -128 0
-127 -129 0
-127 -130 0
-127 -131 0
-127 -132 0
-127 -133 0
-127 -134 0
-127 -135 0
-128 -129 0
-128 -130 0
-128 -131 0
-128 -132 0
-128 -133 0
-128 -134 0
-128 -135 0
-129 -130 0
-129 -131 0
-129 -132 0
-129 -133 0
-129 -134 0
-129 -135 0
-130 -131 0
-130 -132 0
-130 -133 0
-130 -134 0
-130 -135 0
-131 -132 0
-131 -133 0
-131 -134 0
-131 -135 0
-132 -133 0
-132 -134 0
-132 -135 0
-133 -134 0
-133 -135 0
-134 -135 0
-442 418 121 0
-443 419 122 0
-444 420 0
-445 421 123 0
-446 422 124 0
-447 423 125 0
-448 424 126 0
-449 425 127 0
-450 426 128 0
-451 427 0
-452 428 129 0
-453 429 130 0
-454 430 0
-455 431 0
-456 432 131 0
-457 433 132 0
-458 434 133 0
-459 435 134 0
-460 436 0
-461 437 0
-462 438 135 0
-463 439 0
-464 440 0
-465 441 0
-136 -137 0
-136 -138 0
-136 -139 0
-136 -140 0
-136 -141 0
-136 -142 0
-136 -143 0
-136 -144 0
-136 -145 0
-136 -146 0
-136 -147 0
-136 -148 0
-136 -149 0
-136 -150 0
-137 -138 0
-137 -139 0
-137 -140 0
-137 -141 0
-137 -142 0
-137 -143 0
-137 -144 0
-137 -145 0
-137 -146 0
-137 -147 0
-137 -148 0
-137 -149 0
-137 -150 0
-138 -139 0
-138 -140 0
-138 -141 0
-138 -142 0
-138 -143 0
-138 -144 0
-138 -145 0
-138 -146 0
-138 -147 0
-138 -148 0
-138 -149 0
-138 -150 0
-139 -140 0
-139 -141 0
-139 -142 0
-139 -143 0
-139 -144 0
-139 -145 0
-139 -146 0
-139 -147 0
-139 -148 0
-139 -149 0
-139 -150 0
-140 -141 0
-140 -142 0
-140 -143 0
-140 -144 0
-140 -145 0
-140 -146 0
-140 -147 0
-140 -148 0
-140 -149 0
-140 -150 0
-141 -142 0
-141 -143 0
-141 -144 0
-141 -145 0
-141 -146 0
-141 -147 0
-141 -148 0
-141 -149 0
-141 -150 0
-142 -143 0
-142 -144 0
-142 -145 0
-142 -146 0
-142 -147 0
-142 -148 0
-142 -149 0
-142 -150 0
-143 -144 0
-143 -145 0
-143 -146 0
-143 -147 0
-143 -148 0
-143 -149 0
-143 -150 0
-144 -145 0
-144 -146 0
-144 -147 0
-144 -148 0
-144 -149 0
-144 -150 0
-145 -146 0
-145 -147 0
-145 -148 0
-145 -149 0
-145 -150 0
-146 -147 0
-146 -148 0
-146 -149 0
-146 -150 0
-147 -148 0
-147 -149 0
-147 -150 0
-148 -149 0
-148 -150 0
-149 -150 0
-466 442 136 0
-467 443 137 0
-468 444 0
-469 445 138 0
-470 446 139 0
-471 447 140 0
-472 448 141 0
-473 449 142 0
-474 450 143 0
-475 451 0
-476 452 144 0
-477 453 145 0
-478 454 0
-479 455 0
-480 456 146 0
-481 457 147 0
-482 458 148 0
-483 459 149 0
-484 460 0
-485 461 0
-486 462 150 0
-487 463 0
-488 464 0
-489 465 0
-151 -152 0
-151 -153 0
-151 -154 0
-151 -155 0
-151 -156 0
-151 -157 0
-151 -158 0
-151 -159 0
-151 -160 0
-151 -161 0
-151 -162 0
-151 -163 0
-151 -164 0
-151 -165 0
-152 -153 0
-152 -154 0
-152 -155 0
-152 -156 0
-152 -157 0
-152 -158 0
-152 -159 0
-152 -160 0
-152 -161 0
-152 -162 0
-152 -163 0
-152 -164 0
-152 -165 0
-153 -154 0
-153 -155 0
-153 -156 0
-153 -157 0
-153 -158 0
-153 -159 0
-153 -160 0
-153 -161 0
-153 -162 0
-153 -163 0
-153 -164 0
-153 -165 0
-154 -155 0
-154 -156 0
-154 -157 0
-154 -158 0
-154 -159 0
-154 -160 0
-154 -161 0
-154 -162 0
-154 -163 0
-154 -164 0
-154 -165 0
-155 -156 0
-155 -157 0
-155 -158 0
-155 -159 0
-155 -160 0
-155 -161 0
-155 -162 0
-155 -163 0
-155 -164 0
-155 -165 0
-156 -157 0
-156 -158 0
-156 -159 0
-156 -160 0
-156 -161 0
-156 -162 0
-156 -163 0
-156 -164 0
-156 -165 0
-157 -158 0
-157 -159 0
-157 -160 0
-157 -161 0
-157 -162 0
-157 -163 0
-157 -164 0
-157 -165 0
-158 -159 0
-158 -160 0
-158 -161 0
-158 -162 0
-158 -163 0
-158 -164 0
-158 -165 0
-159 -160 0
-159 -161 0
-159 -162 0
-159 -163 0
-159 -164 0
-159 -165 0
-160 -161 0
-160 -162 0
-160 -163 0
-160 -164 0
-160 -165 0
-161 -162 0
-161 -163 0
-161 -164 0
-161 -165 0
-162 -163 0
-162 -164 0
-162 -165 0
-163 -164 0
-163 -165 0
-164 -165 0
-490 466 151 0
-491 467 152 0
-492 468 0
-493 469 153 0
-494 470 154 0
-495 471 155 0
-496 472 156 0
-497 473 157 0
-498 474 158 0
-499 475 0
-500 476 159 0
-501 477 160 0
-502 478 0
-503 479 0
-504 480 161 0
-505 481 162 0
-506 482 163 0
-507 483 164 0
-508 484 0
-509 485 0
-510 486 165 0
-511 487 0
-512 488 0
-513 489 0
-166 -167 0
-166 -168 0
-166 -169 0
-166 -170 0
-166 -171 0
-166 -172 0
-166 -173 0
-166 -174 0
-166 -175 0
-166 -176 0
-166 -177 0
-166 -178 0
-166 -179 0
-166 -180 0
-167 -168 0
-167 -169 0
-167 -170 0
-167 -171 0
-167 -172 0
-167 -173 0
-167 -174 0
-167 -175 0
-167 -176 0
-167 -177 0
-167 -178 0
-167 -179 0
-167 -180 0
-168 -169 0
-168 -170 0
-168 -171 0
-168 -172 0
-168 -173 0
-168 -174 0
-168 -175 0
-168 -176 0
-168 -177 0
-168 -178 0
-168 -179 0
-168 -180 0
-169 -170 0
-169 -171 0
-169 -172 0
-169 -173 0
-169 -174 0
-169 -175 0
-169 -176 0
-169 -177 0
-169 -178 0
-169 -179 0
-169 -180 0
-170 -171 0
-170 -172 0
-170 -173 0
-170 -174 0
-170 -175 0
-170 -176 0
-170 -177 0
-170 -178 0
-170 -179 0
-170 -180 0
-171 -172 0
-171 -173 0
-171 -174 0
-171 -175 0
-171 -176 0
-171 -177 0
-171 -178 0
-171 -179 0
-171 -180 0
-172 -173 0
-172 -174 0
-172 -175 0
-172 -176 0
-172 -177 0
-172 -178 0
-172 -179 0
-172 -180 0
-173 -174 0
-173 -175 0
-173 -176 0
-173 -177 0
-173 -178 0
-173 -179 0
-173 -180 0
-174 -175 0
-174 -176 0
-174 -177 0
-174 -178 0
-174 -179 0
-174 -180 0
-175 -176 0
-175 -177 0
-175 -178 0
-175 -179 0
-175 -180 0
-176 -177 0
-176 -178 0
-176 -179 0
-176 -180 0
-177 -178 0
-177 -179 0
-177 -180 0
-178 -179 0
-178 -180 0
-179 -180 0
-514 490 166 0
-515 491 167 0
-516 492 0
-517 493 168 0
-518 494 169 0
-519 495 170 0
-520 496 171 0
-521 497 172 0
-522 498 173 0
-523 499 0
-524 500 174 0
-525 501 175 0
-526 502 0
-527 503 0
-528 504 176 0
-529 505 177 0
-530 506 178 0
-531 507 179 0
-532 508 0
-533 509 0
-534 510 180 0
-535 511 0
-536 512 0
-537 513 0
-181 -182 0
-181 -183 0
-181 -184 0
-181 -185 0
-181 -186 0
-181 -187 0
-181 -188 0
-181 -189 0
-181 -190 0
-181 -191 0
-181 -192 0
-181 -193 0
-181 -194 0
-181 -195 0
-182 -183 0
-182 -184 0
-182 -185 0
-182 -186 0
-182 -187 0
-182 -188 0
-182 -189 0
-182 -190 0
-182 -191 0
-182 -192 0
-182 -193 0
-182 -194 0
-182 -195 0
-183 -184 0
-183 -185 0
-183 -186 0
-183 -187 0
-183 -188 0
-183 -189 0
-183 -190 0
-183 -191 0
-183 -192 0
-183 -193 0
-183 -194 0
-183 -195 0
-184 -185 0
-184 -186 0
-184 -187 0
-184 -188 0
-184 -189 0
-184 -190 0
-184 -191 0
-184 -192 0
-184 -193 0
-184 -194 0
-184 -195 0
-185 -186 0
-185 -187 0
-185 -188 0
-185 -189 0
-185 -190 0
-185 -191 0
-185 -192 0
-185 -193 0
-185 -194 0
-185 -195 0
-186 -187 0
-186 -188 0
-186 -189 0
-186 -190 0
-186 -191 0
-186 -192 0
-186 -193 0
-186 -194 0
-186 -195 0
-187 -188 0
-187 -189 0
-187 -190 0
-187 -191 0
-187 -192 0
-187 -193 0
-187 -194 0
-187 -195 0
-188 -189 0
-188 -190 0
-188 -191 0
-188 -192 0
-188 -193 0
-188 -194 0
-188 -195 0
-189 -190 0
-189 -191 0
-189 -192 0
-189 -193 0
-189 -194 0
-189 -195 0
-190 -191 0
-190 -192 0
-190 -193 0
-190 -194 0
-190 -195 0
-191 -192 0
-191 -193 0
-191 -194 0
-191 -195 0
-192 -193 0
-192 -194 0
-192 -195 0
-193 -194 0
-193 -195 0
-194 -195 0
-538 514 181 0
-539 515 182 0
-540 516 0
-541 517 183 0
-542 518 184 0
-543 519 185 0
-544 520 186 0
-545 521 187 0
-546 522 188 0
-547 523 0
-548 524 189 0
-549 525 190 0
-550 526 0
-551 527 0
-552 528 191 0
-553 529 192 0
-554 530 193 0
-555 531 194 0
-556 532 0
-557 533 0
-558 534 195 0
-559 535 0
-560 536 0
-561 537 0
-196 -197 0
-196 -198 0
-196 -199 0
-196 -200 0
-196 -201 0
-196 -202 0
-196 -203 0
-196 -204 0
-196 -205 0
-196 -206 0
-196 -207 0
-196 -208 0
-196 -209 0
-196 -210 0
-197 -198 0
-197 -199 0
-197 -200 0
-197 -201 0
-197 -202 0
-197 -203 0
-197 -204 0
-197 -205 0
-197 -206 0
-197 -207 0
-197 -208 0
-197 -209 0
-197 -210 0
-198 -199 0
-198 -200 0
-198 -201 0
-198 -202 0
-198 -203 0
-198 -204 0
-198 -205 0
-198 -206 0
-198 -207 0
-198 -208 0
-198 -209 0
-198 -210 0
-199 -200 0
-199 -201 0
-199 -202 0
-199 -203 0
-199 -204 0
-199 -205 0
-199 -206 0
-199 -207 0
-199 -208 0
-199 -209 0
-199 -210 0
-200 -201 0
-200 -202 0
-200 -203 0
-200 -204 0
-200 -205 0
-200 -206 0
-200 -207 0
-200 -208 0
-200 -209 0
-200 -210 0
-201 -202 0
-201 -203 0
-201 -204 0
-201 -205 0
-201 -206 0
-201 -207 0
-201 -208 0
-201 -209 0
-201 -210 0
-202 -203 0
-202 -204 0
-202 -205 0
-202 -206 0
-202 -207 0
-202 -208 0
-202 -209 0
-202 -210 0
-203 -204 0
-203 -205 0
-203 -206 0
-203 -207 0
-203 -208 0
-203 -209 0
-203 -210 0
-204 -205 0
-204 -206 0
-204 -207 0
-204 -208 0
-204 -209 0
-204 -210 0
-205 -206 0
-205 -207 0
-205 -208 0
-205 -209 0
-205 -210 0
-206 -207 0
-206 -208 0
-206 -209 0
-206 -210 0
-207 -208 0
-207 -209 0
-207 -210 0
-208 -209 0
-208 -210 0
-209 -210 0
-562 538 196 0
-563 539 197 0
-564 540 0
-565 541 198 0
-566 542 199 0
-567 543 200 0
-568 544 201 0
-569 545 202 0
-570 546 203 0
-571 547 0
-572 548 204 0
-573 549 205 0
-574 550 0
-575 551 0
-576 552 206 0
-577 553 207 0
-578 554 208 0
-579 555 209 0
-580 556 0
-581 557 0
-582 558 210 0
-583 559 0
-584 560 0
-585 561 0
-211 -212 0
-211 -213 0
-211 -214 0
-211 -215 0
-211 -216 0
-211 -217 0
-211 -218 0
-211 -219 0
-211 -220 0
-211 -221 0
-211 -222 0
-211 -223 0
-211 -224 0
-211 -225 0
-212 -213 0
-212 -214 0
-212 -215 0
-212 -216 0
-212 -217 0
-212 -218 0
-212 -219 0
-212 -220 0
-212 -221 0
-212 -222 0
-212 -223 0
-212 -224 0
-212 -225 0
-213 -214 0
-213 -215 0
-213 -216 0
-213 -217 0
-213 -218 0
-213 -219 0
-213 -220 0
-213 -221 0
-213 -222 0
-213 -223 0
-213 -224 0
-213 -225 0
-214 -215 0
-214 -216 0
-214 -217 0
-214 -218 0
-214 -219 0
-214 -220 0
-214 -221 0
-214 -222 0
-214 -223 0
-214 -224 0
-214 -225 0
-215 -216 0
-215 -217 0
-215 -218 0
-215 -219 0
-215 -220 0
-215 -221 0
-215 -222 0
-215 -223 0
-215 -224 0
-215 -225 0
-216 -217 0
-216 -218 0
-216 -219 0
-216 -220 0
-216 -221 0
-216 -222 0
-216 -223 0
-216 -224 0
-216 -225 0
-217 -218 0
-217 -219 0
-217 -220 0
-217 -221 0
-217 -222 0
-217 -223 0
-217 -224 0
-217 -225 0
-218 -219 0
-218 -220 0
-218 -221 0
-218 -222 0
-218 -223 0
-218 -224 0
-218 -225 0
-219 -220 0
-219 -221 0
-219 -222 0
-219 -223 0
-219 -224 0
-219 -225 0
-220 -221 0
-220 -222 0
-220 -223 0
-220 -224 0
-220 -225 0
-221 -222 0
-221 -223 0
-221 -224 0
-221 -225 0
-222 -223 0
-222 -224 0
-222 -225 0
-223 -224 0
-223 -225 0
-224 -225 0
-586 562 211 0
-587 563 212 0
-588 564 0
-589 565 213 0
-590 566 214 0
-591 567 215 0
-592 568 216 0
-593 569 217 0
-594 570 218 0
-595 571 0
-596 572 219 0
-597 573 220 0
-598 574 0
-599 575 0
-600 576 221 0
-601 577 222 0
-602 578 223 0
-603 579 224 0
-604 580 0
-605 581 0
-606 582 225 0
-607 583 0
-608 584 0
-609 585 0
-226 0
-227 0
228 0
-229 0
-230 0
-231 0
-232 0
-233 0
-234 0
235 0
-236 0
-237 0
238 0
239 0
-240 0
-241 0
-242 0
-243 0
244 0
245 0
-246 0
247 0
248 0
249 0
1 16 31 46 61 76 91 106 121 136 151 166 181 196 211 0
2 17 32 47 62 77 92 107 122 137 152 167 182 197 212 0
3 18 33 48 63 78 93 108 123 138 153 168 183 198 213 0
4 19 34 49 64 79 94 109 124 139 154 169 184 199 214 0
5 20 35 50 65 80 95 110 125 140 155 170 185 200 215 0
6 21 36 51 66 81 96 111 126 141 156 171 186 201 216 0
7 22 37 52 67 82 97 112 127 142 157 172 187 202 217 0
8 23 38 53 68 83 98 113 128 143 158 173 188 203 218 0
9 24 39 54 69 84 99 114 129 144 159 174 189 204 219 0
10 25 40 55 70 85 100 115 130 145 160 175 190 205 220 0
11 26 41 56 71 86 101 116 131 146 161 176 191 206 221 0
12 27 42 57 72 87 102 117 132 147 162 177 192 207 222 0
13 28 43 58 73 88 103 118 133 148 163 178 193 208 223 0
14 29 44 59 74 89 104 119 134 149 164 179 194 209 224 0
15 30 45 60 75 90 105 120 135 150 165 180 195 210 225 0
-610 229 0
-610 230 0
-611 229 0
-611 230 0
-1 610 611 0
-2 0
-612 226 0
-612 230 0
-613 226 0
-613 230 0
-614 230 0
-614 249 0
-615 230 0
-615 249 0
-616 231 0
-616 246 0
-617 231 0
-617 246 0
-3 612 613 614 615 616 617 0
-618 226 0
-618 229 0
-619 226 0
-619 229 0
-620 229 0
-620 249 0
-621 229 0
-621 249 0
-622 231 0
-622 247 0
-623 231 0
-623 247 0
-4 618 619 620 621 622 623 0
-624 228 0
-624 239 0
-625 228 0
-625 239 0
-626 229 0
-626 246 0
-627 229 0
-627 246 0
-628 230 0
-628 247 0
-629 230 0
-629 247 0
-630 232 0
-630 237 0
-631 232 0
-631 237 0
-5 624 625 626 627 628 629 630 631 0
-632 228 0
-632 235 0
-633 228 0
-633 235 0
-634 231 0
-634 237 0
-635 231 0
-635 237 0
-6 632 633 634 635 0
-636 235 0
-636 238 0
-637 235 0
-637 238 0
-7 636 637 0
-638 235 0
-638 245 0
-639 235 0
-639 245 0
-640 236 0
-640 241 0
-641 236 0
-641 241 0
-8 638 639 640 641 0
-642 234 0
-642 241 0
-643 234 0
-643 241 0
-644 235 0
-644 244 0
-645 235 0
-645 244 0
-9 642 643 644 645 0
-646 231 0
-646 232 0
-647 231 0
-647 232 0
-648 235 0
-648 239 0
-649 235 0
-649 239 0
-10 646 647 648 649 0
-11 0
-650 234 0
-650 236 0
-651 234 0
-651 236 0
-652 242 0
-652 248 0
-653 242 0
-653 248 0
-654 244 0
-654 245 0
-655 244 0
-655 245 0
-12 650 651 652 653 654 655 0
-656 241 0
-656 248 0
-657 241 0
-657 248 0
-658 243 0
-658 249 0
-659 243 0
-659 249 0
-13 656 657 658 659 0
-660 242 0
-660 249 0
-661 242 0
-661 249 0
-14 660 661 0
-662 229 0
-662 231 0
-663 229 0
-663 231 0
-664 247 0
-664 249 0
-665 247 0
-665 249 0
-15 662 663 664 665 0
-666 253 0
-666 254 0
-667 253 0
-667 254 0
-16 666 667 0
-17 0
-668 250 0
-668 254 0
-669 250 0
-669 254 0
-670 254 0
-670 273 0
-671 254 0
-671 273 0
-672 255 0
-672 270 0
-673 255 0
-673 270 0
-18 668 669 670 671 672 673 0
-674 250 0
-674 253 0
-675 250 0
-675 253 0
-676 253 0
-676 273 0
-677 253 0
-677 273 0
-678 255 0
-678 271 0
-679 255 0
-679 271 0
-19 674 675 676 677 678 679 0
-680 252 0
-680 263 0
-681 252 0
-681 263 0
-682 253 0
-682 270 0
-683 253 0
-683 270 0
-684 254 0
-684 271 0
-685 254 0
-685 271 0
-686 256 0
-686 261 0
-687 256 0
-687 261 0
-20 680 681 682 683 684 685 686 687 0
-688 252 0
-688 259 0
-689 252 0
-689 259 0
-690 255 0
-690 261 0
-691 255 0
-691 261 0
-21 688 689 690 691 0
-692 259 0
-692 262 0
-693 259 0
-693 262 0
-22 692 693 0
-694 259 0
-694 269 0
-695 259 0
-695 269 0
-696 260 0
-696 265 0
-697 260 0
-697 265 0
-23 694 695 696 697 0
-698 258 0
-698 265 0
-699 258 0
-699 265 0
-700 259 0
-700 268 0
-701 259 0
-701 268 0
-24 698 699 700 701 0
-702 255 0
-702 256 0
-703 255 0
-703 256 0
-704 259 0
-704 263 0
-705 259 0
-705 263 0
-25 702 703 704 705 0
-26 0
-706 258 0
-706 260 0
-707 258 0
-707 260 0
-708 266 0
-708 272 0
-709 266 0
-709 272 0
-710 268 0
-710 269 0
-711 268 0
-711 269 0
-27 706 707 708 709 710 711 0
-712 265 0
-712 272 0
-713 265 0
-713 272 0
-714 267 0
-714 273 0
-715 267 0
-715 273 0
-28 712 713 714 715 0
-716 266 0
-716 273 0
-717 266 0
-717 273 0
-29 716 717 0
-718 253 0
-718 255 0
-719 253 0
-719 255 0
-720 271 0
-720 273 0
-721 271 0
-721 273 0
-30 718 719 720 721 0
-722 277 0
-722 278 0
-723 277 0
-723 278 0
-31 722 723 0
-32 0
-724 274 0
-724 278 0
-725 274 0
-725 278 0
-726 278 0
-726 297 0
-727 278 0
-727 297 0
-728 279 0
-728 294 0
-729 279 0
-729 294 0
-33 724 725 726 727 728 729 0
-730 274 0
-730 277 0
-731 274 0
-731 277 0
-732 277 0
-732 297 0
-733 277 0
-733 297 0
-734 279 0
-734 295 0
-735 279 0
-735 295 0
-34 730 731 732 733 734 735 0
-736 276 0
-736 287 0
-737 276 0
-737 287 0
-738 277 0
-738 294 0
-739 277 0
-739 294 0
-740 278 0
-740 295 0
-741 278 0
-741 295 0
-742 280 0
-742 285 0
-743 280 0
-743 285 0
-35 736 737 738 739 740 741 742 743 0
-744 276 0
-744 283 0
-745 276 0
-745 283 0
-746 279 0
-746 285 0
-747 279 0
-747 285 0
-36 744 745 746 747 0
-748 283 0
-748 286 0
-749 283 0
-749 286 0
-37 748 749 0
-750 283 0
-750 293 0
-751 283 0
-751 293 0
-752 284 0
-752 289 0
-753 284 0
-753 289 0
-38 750 751 752 753 0
-754 282 0
-754 289 0
-755 282 0
-755 289 0
-756 283 0
-756 292 0
-757 283 0
-757 292 0
-39 754 755 756 757 0
-758 279 0
-758 280 0
-759 279 0
-759 280 0
-760 283 0
-760 287 0
-761 283 0
-761 287 0
-40 758 759 760 761 0
-41 0
-762 282 0
-762 284 0
-763 282 0
-763 284 0
-764 290 0
-764 296 0
-765 290 0
-765 296 0
-766 292 0
-766 293 0
-767 292 0
-767 293 0
-42 762 763 764 765 766 767 0
-768 289 0
-768 296 0
-769 289 0
-769 296 0
-770 291 0
-770 297 0
-771 291 0
-771 297 0
-43 768 769 770 771 0
-772 290 0
-772 297 0
-773 290 0
-773 297 0
-44 772 773 0
-774 277 0
-774 279 0
-775 277 0
-775 279 0
-776 295 0
-776 297 0
-777 295 0
-777 297 0
-45 774 775 776 777 0
-778 301 0
-778 302 0
-779 301 0
-779 302 0
-46 778 779 0
-47 0
-780 298 0
-780 302 0
-781 298 0
-781 302 0
-782 302 0
-782 321 0
-783 302 0
-783 321 0
-784 303 0
-784 318 0
-785 303 0
-785 318 0
-48 780 781 782 783 784 785 0
-786 298 0
-786 301 0
-787 298 0
-787 301 0
-788 301 0
-788 321 0
-789 301 0
-789 321 0
-790 303 0
-790 319 0
-791 303 0
-791 319 0
-49 786 787 788 789 790 791 0
-792 300 0
-792 311 0
-793 300 0
-793 311 0
-794 301 0
-794 318 0
-795 301 0
-795 318 0
-796 302 0
-796 319 0
-797 302 0
-797 319 0
-798 304 0
-798 309 0
-799 304 0
-799 309 0
-50 792 793 794 795 796 797 798 799 0
-800 300 0
-800 307 0
-801 300 0
-801 307 0
-802 303 0
-802 309 0
-803 303 0
-803 309 0
-51 800 801 802 803 0
-804 307 0
-804 310 0
-805 307 0
-805 310 0
-52 804 805 0
-806 307 0
-806 317 0
-807 307 0
-807 317 0
-808 308 0
-808 313 0
-809 308 0
-809 313 0
-53 806 807 808 809 0
-810 306 0
-810 313 0
-811 306 0
-811 313 0
-812 307 0
-812 316 0
-813 307 0
-813 316 0
-54 810 811 812 813 0
-814 303 0
-814 304 0
-815 303 0
-815 304 0
-816 307 0
-816 311 0
-817 307 0
-817 311 0
-55 814 815 816 817 0
-56 0
-818 306 0
-818 308 0
-819 306 0
-819 308 0
-820 314 0
-820 320 0
-821 314 0
-821 320 0
-822 316 0
-822 317 0
-823 316 0
-823 317 0
-57 818 819 820 821 822 823 0
-824 313 0
-824 320 0
-825 313 0
-825 320 0
-826 315 0
-826 321 0
-827 315 0
-827 321 0
-58 824 825 826 827 0
-828 314 0
-828 321 0
-829 314 0
-829 321 0
-59 828 829 0
-830 301 0
-830 303 0
-831 301 0
-831 303 0
-832 319 0
-832 321 0
-833 319 0
-833 321 0
-60 830 831 832 833 0
-834 325 0
-834 326 0
-835 325 0
-835 326 0
-61 834 835 0
-62 0
-836 322 0
-836 326 0
-837 322 0
-837 326 0
-838 326 0
-838 345 0
-839 326 0
-839 345 0
-840 327 0
-840 342 0
-841 327 0
-841 342 0
-63 836 837 838 839 840 841 0
-842 322 0
-842 325 0
-843 322 0
-843 325 0
-844 325 0
-844 345 0
-845 325 0
-845 345 0
-846 327 0
-846 343 0
-847 327 0
-847 343 0
-64 842 843 844 845 846 847 0
-848 324 0
-848 335 0
-849 324 0
-849 335 0
-850 325 0
-850 342 0
-851 325 0
-851 342 0
-852 326 0
-852 343 0
-853 326 0
-853 343 0
-854 328 0
-854 333 0
-855 328 0
-855 333 0
-65 848 849 850 851 852 853 854 855 0
-856 324 0
-856 331 0
-857 324 0
-857 331 0
-858 327 0
-858 333 0
-859 327 0
-859 333 0
-66 856 857 858 859 0
-860 331 0
-860 334 0
-861 331 0
-861 334 0
-67 860 861 0
-862 331 0
-862 341 0
-863 331 0
-863 341 0
-864 332 0
-864 337 0
-865 332 0
-865 337 0
-68 862 863 864 865 0
-866 330 0
-866 337 0
-867 330 0
-867 337 0
-868 331 0
-868 340 0
-869 331 0
-869 340 0
-69 866 867 868 869 0
-870 327 0
-870 328 0
-871 327 0
-871 328 0
-872 331 0
-872 335 0
-873 331 0
-873 335 0
-70 870 871 872 873 0
-71 0
-874 330 0
-874 332 0
-875 330 0
-875 332 0
-876 338 0
-876 344 0
-877 338 0
-877 344 0
-878 340 0
-878 341 0
-879 340 0
-879 341 0
-72 874 875 876 877 878 879 0
-880 337 0
-880 344 0
-881 337 0
-881 344 0
-882 339 0
-882 345 0
-883 339 0
-883 345 0
-73 880 881 882 883 0
-884 338 0
-884 345 0
-885 338 0
-885 345 0
-74 884 885 0
-886 325 0
-886 327 0
-887 325 0
-887 327 0
-888 343 0
-888 345 0
-889 343 0
-889 345 0
-75 886 887 888 889 0
-890 349 0
-890 350 0
-891 349 0
-891 350 0
-76 890 891 0
-77 0
-892 346 0
-892 350 0
-893 346 0
-893 350 0
-894 350 0
-894 369 0
-895 350 0
-895 369 0
-896 351 0
-896 366 0
-897 351 0
-897 366 0
-78 892 893 894 895 896 897 0
-898 346 0
-898 349 0
-899 346 0
-899 349 0
-900 349 0
-900 369 0
-901 349 0
-901 369 0
-902 351 0
-902 367 0
-903 351 0
-903 367 0
-79 898 899 900 901 902 903 0
-904 348 0
-904 359 0
-905 348 0
-905 359 0
-906 349 0
-906 366 0
-907 349 0
-907 366 0
-908 350 0
-908 367 0
-909 350 0
-909 367 0
-910 352 0
-910 357 0
-911 352 0
-911 357 0
-80 904 905 906 907 908 909 910 911 0
-912 348 0
-912 355 0
-913 348 0
-913 355 0
-914 351 0
-914 357 0
-915 351 0
-915 357 0
-81 912 913 914 915 0
-916 355 0
-916 358 0
-917 355 0
-917 358 0
-82 916 917 0
-918 355 0
-918 365 0
-919 355 0
-919 365 0
-920 356 0
-920 361 0
-921 356 0
-921 361 0
-83 918 919 920 921 0
-922 354 0
-922 361 0
-923 354 0
-923 361 0
-924 355 0
-924 364 0
-925 355 0
-925 364 0
-84 922 923 924 925 0
-926 351 0
-926 352 0
-927 351 0
-927 352 0
-928 355 0
-928 359 0
-929 355 0
-929 359 0
-85 926 927 928 929 0
-86 0
-930 354 0
-930 356 0
-931 354 0
-931 356 0
-932 362 0
-932 368 0
-933 362 0
-933 368 0
-934 364 0
-934 365 0
-935 364 0
-935 365 0
-87 930 931 932 933 934 935 0
-936 361 0
-936 368 0
-937 361 0
-937 368 0
-938 363 0
-938 369 0
-939 363 0
-939 369 0
-88 936 937 938 939 0
-940 362 0
-940 369 0
-941 362 0
-941 369 0
-89 940 941 0
-942 349 0
-942 351 0
-943 349 0
-943 351 0
-944 367 0
-944 369 0
-945 367 0
-945 369 0
-90 942 943 944 945 0
-946 373 0
-946 374 0
-947 373 0
-947 374 0
-91 946 947 0
-92 0
-948 370 0
-948 374 0
-949 370 0
-949 374 0
-950 374 0
-950 393 0
-951 374 0
-951 393 0
-952 375 0
-952 390 0
-953 375 0
-953 390 0
-93 948 949 950 951 952 953 0
-954 370 0
-954 373 0
-955 370 0
-955 373 0
-956 373 0
-956 393 0
-957 373 0
-957 393 0
-958 375 0
-958 391 0
-959 375 0
-959 391 0
-94 954 955 956 957 958 959 0
-960 372 0
-960 383 0
-961 372 0
-961 383 0
-962 373 0
-962 390 0
-963 373 0
-963 390 0
-964 374 0
-964 391 0
-965 374 0
-965 391 0
-966 376 0
-966 381 0
-967 376 0
-967 381 0
-95 960 961 962 963 964 965 966 967 0
-968 372 0
-968 379 0
-969 372 0
-969 379 0
-970 375 0
-970 381 0
-971 375 0
-971 381 0
-96 968 969 970 971 0
-972 379 0
-972 382 0
-973 379 0
-973 382 0
-97 972 973 0
-974 379 0
-974 389 0
-975 379 0
-975 389 0
-976 380 0
-976 385 0
-977 380 0
-977 385 0
-98 974 975 976 977 0
-978 378 0
-978 385 0
-979 378 0
-979 385 0
-980 379 0
-980 388 0
-981 379 0
-981 388 0
-99 978 979 980 981 0
-982 375 0
-982 376 0
-983 375 0
-983 376 0
-984 379 0
-984 383 0
-985 379 0
-985 383 0
-100 982 983 984 985 0
-101 0
-986 378 0
-986 380 0
-987 378 0
-987 380 0
-988 386 0
-988 392 0
-989 386 0
-989 392 0
-990 388 0
-990 389 0
-991 388 0
-991 389 0
-102 986 987 988 989 990 991 0
-992 385 0
-992 392 0
-993 385 0
-993 392 0
-994 387 0
-994 393 0
-995 387 0
-995 393 0
-103 992 993 994 995 0
-996 386 0
-996 393 0
-997 386 0
-997 393 0
-104 996 997 0
-998 373 0
-998 375 0
-999 373 0
-999 375 0
-1000 391 0
-1000 393 0
-1001 391 0
-1001 393 0
-105 998 999 1000 1001 0
-1002 397 0
-1002 398 0
-1003 397 0
-1003 398 0
-106 1002 1003 0
-107 0
-1004 394 0
-1004 398 0
-1005 394 0
-1005 398 0
-1006 398 0
-1006 417 0
-1007 398 0
-1007 417 0
-1008 399 0
-1008 414 0
-1009 399 0
-1009 414 0
-108 1004 1005 1006 1007 1008 1009 0
-1010 394 0
-1010 397 0
-1011 394 0
-1011 397 0
-1012 397 0
-1012 417 0
-1013 397 0
-1013 417 0
-1014 399 0
-1014 415 0
-1015 399 0
-1015 415 0
-109 1010 1011 1012 1013 1014 1015 0
-1016 396 0
-1016 407 0
-1017 396 0
-1017 407 0
-1018 397 0
-1018 414 0
-1019 397 0
-1019 414 0
-1020 398 0
-1020 415 0
-1021 398 0
-1021 415 0
-1022 400 0
-1022 405 0
-1023 400 0
-1023 405 0
-110 1016 1017 1018 1019 1020 1021 1022 1023 0
-1024 396 0
-1024 403 0
-1025 396 0
-1025 403 0
-1026 399 0
-1026 405 0
-1027 399 0
-1027 405 0
-111 1024 1025 1026 1027 0
-1028 403 0
-1028 406 0
-1029 403 0
-1029 406 0
-112 1028 1029 0
-1030 403 0
-1030 413 0
-1031 403 0
-1031 413 0
-1032 404 0
-1032 409 0
-1033 404 0
-1033 409 0
-113 1030 1031 1032 1033 0
-1034 402 0
-1034 409 0
-1035 402 0
-1035 409 0
-1036 403 0
-1036 412 0
-1037 403 0
-1037 412 0
-114 1034 1035 1036 1037 0
-1038 399 0
-1038 400 0
-1039 399 0
-1039 400 0
-1040 403 0
-1040 407 0
-1041 403 0
-1041 407 0
-115 1038 1039 1040 1041 0
-116 0
-1042 402 0
-1042 404 0
-1043 402 0
-1043 404 0
-1044 410 0
-1044 416 0
-1045 410 0
-1045 416 0
-1046 412 0
-1046 413 0
-1047 412 0
-1047 413 0
-117 1042 1043 1044 1045 1046 1047 0
-1048 409 0
-1048 416 0
-1049 409 0
-1049 416 0
-1050 411 0
-1050 417 0
-1051 411 0
-1051 417 0
-118 1048 1049 1050 1051 0
-1052 410 0
-1052 417 0
-1053 410 0
-1053 417 0
-119 1052 1053 0
-1054 397 0
-1054 399 0
-1055 397 0
-1055 399 0
-1056 415 0
-1056 417 0
-1057 415 0
-1057 417 0
-120 1054 1055 1056 1057 0
-1058 421 0
-1058 422 0
-1059 421 0
-1059 422 0
-121 1058 1059 0
-122 0
-1060 418 0
-1060 422 0
-1061 418 0
-1061 422 0
-1062 422 0
-1062 441 0
-1063 422 0
-1063 441 0
-1064 423 0
-1064 438 0
-1065 423 0
-1065 438 0
-123 1060 1061 1062 1063 1064 1065 0
-1066 418 0
-1066 421 0
-1067 418 0
-1067 421 0
-1068 421 0
-1068 441 0
-1069 421 0
-1069 441 0
-1070 423 0
-1070 439 0
-1071 423 0
-1071 439 0
-124 1066 1067 1068 1069 1070 1071 0
-1072 420 0
-1072 431 0
-1073 420 0
-1073 431 0
-1074 421 0
-1074 438 0
-1075 421 0
-1075 438 0
-1076 422 0
-1076 439 0
-1077 422 0
-1077 439 0
-1078 424 0
-1078 429 0
-1079 424 0
-1079 429 0
-125 1072 1073 1074 1075 1076 1077 1078 1079 0
-1080 420 0
-1080 427 0
-1081 420 0
-1081 427 0
-1082 423 0
-1082 429 0
-1083 423 0
-1083 429 0
-126 1080 1081 1082 1083 0
-1084 427 0
-1084 430 0
-1085 427 0
-1085 430 0
-127 1084 1085 0
-1086 427 0
-1086 437 0
-1087 427 0
-1087 437 0
-1088 428 0
-1088 433 0
-1089 428 0
-1089 433 0
-128 1086 1087 1088 1089 0
-1090 426 0
-1090 433 0
-1091 426 0
-1091 433 0
-1092 427 0
-1092 436 0
-1093 427 0
-1093 436 0
-129 1090 1091 1092 1093 0
-1094 423 0
-1094 424 0
-1095 423 0
-1095 424 0
-1096 427 0
-1096 431 0
-1097 427 0
-1097 431 0
-130 1094 1095 1096 1097 0
-131 0
-1098 426 0
-1098 428 0
-1099 426 0
-1099 428 0
-1100 434 0
-1100 440 0
-1101 434 0
-1101 440 0
-1102 436 0
-1102 437 0
-1103 436 0
-1103 437 0
-132 1098 1099 1100 1101 1102 1103 0
-1104 433 0
-1104 440 0
-1105 433 0
-1105 440 0
-1106 435 0
-1106 441 0
-1107 435 0
-1107 441 0
-133 1104 1105 1106 1107 0
-1108 434 0
-1108 441 0
-1109 434 0
-1109 441 0
-134 1108 1109 0
-1110 421 0
-1110 423 0
-1111 421 0
-1111 423 0
-1112 439 0
-1112 441 0
-1113 439 0
-1113 441 0
-135 1110 1111 1112 1113 0
-1114 445 0
-1114 446 0
-1115 445 0
-1115 446 0
-136 1114 1115 0
-137 0
-1116 442 0
-1116 446 0
-1117 442 0
-1117 446 0
-1118 446 0
-1118 465 0
-1119 446 0
-1119 465 0
-1120 447 0
-1120 462 0
-1121 447 0
-1121 462 0
-138 1116 1117 1118 1119 1120 1121 0
-1122 442 0
-1122 445 0
-1123 442 0
-1123 445 0
-1124 445 0
-1124 465 0
-1125 445 0
-1125 465 0
-1126 447 0
-1126 463 0
-1127 447 0
-1127 463 0
-139 1122 1123 1124 1125 1126 1127 0
-1128 444 0
-1128 455 0
-1129 444 0
-1129 455 0
-1130 445 0
-1130 462 0
-1131 445 0
-1131 462 0
-1132 446 0
-1132 463 0
-1133 446 0
-1133 463 0
-1134 448 0
-1134 453 0
-1135 448 0
-1135 453 0
-140 1128 1129 1130 1131 1132 1133 1134 1135 0
-1136 444 0
-1136 451 0
-1137 444 0
-1137 451 0
-1138 447 0
-1138 453 0
-1139 447 0
-1139 453 0
-141 1136 1137 1138 1139 0
-1140 451 0
-1140 454 0
-1141 451 0
-1141 454 0
-142 1140 1141 0
-1142 451 0
-1142 461 0
-1143 451 0
-1143 461 0
-1144 452 0
-1144 457 0
-1145 452 0
-1145 457 0
-143 1142 1143 1144 1145 0
-1146 450 0
-1146 457 0
-1147 450 0
-1147 457 0
-1148 451 0
-1148 460 0
-1149 451 0
-1149 460 0
-144 1146 1147 1148 1149 0
-1150 447 0
-1150 448 0
-1151 447 0
-1151 448 0
-1152 451 0
-1152 455 0
-1153 451 0
-1153 455 0
-145 1150 1151 1152 1153 0
-146 0
-1154 450 0
-1154 452 0
-1155 450 0
-1155 452 0
-1156 458 0
-1156 464 0
-1157 458 0
-1157 464 0
-1158 460 0
-1158 461 0
-1159 460 0
-1159 461 0
-147 1154 1155 1156 1157 1158 1159 0
-1160 457 0
-1160 464 0
-1161 457 0
-1161 464 0
-1162 459 0
-1162 465 0
-1163 459 0
-1163 465 0
-148 1160 1161 1162 1163 0
-1164 458 0
-1164 465 0
-1165 458 0
-1165 465 0
-149 1164 1165 0
-1166 445 0
-1166 447 0
-1167 445 0
-1167 447 0
-1168 463 0
-1168 465 0
-1169 463 0
-1169 465 0
-150 1166 1167 1168 1169 0
-1170 469 0
-1170 470 0
-1171 469 0
-1171 470 0
-151 1170 1171 0
-152 0
-1172 466 0
-1172 470 0
-1173 466 0
-1173 470 0
-1174 470 0
-1174 489 0
-1175 470 0
-1175 489 0
-1176 471 0
-1176 486 0
-1177 471 0
-1177 486 0
-153 1172 1173 1174 1175 1176 1177 0
-1178 466 0
-1178 469 0
-1179 466 0
-1179 469 0
-1180 469 0
-1180 489 0
-1181 469 0
-1181 489 0
-1182 471 0
-1182 487 0
-1183 471 0
-1183 487 0
-154 1178 1179 1180 1181 1182 1183 0
-1184 468 0
-1184 479 0
-1185 468 0
-1185 479 0
-1186 469 0
-1186 486 0
-1187 469 0
-1187 486 0
-1188 470 0
-1188 487 0
-1189 470 0
-1189 487 0
-1190 472 0
-1190 477 0
-1191 472 0
-1191 477 0
-155 1184 1185 1186 1187 1188 1189 1190 1191 0
-1192 468 0
-1192 475 0
-1193 468 0
-1193 475 0
-1194 471 0
-1194 477 0
-1195 471 0
-1195 477 0
-156 1192 1193 1194 1195 0
-1196 475 0
-1196 478 0
-1197 475 0
-1197 478 0
-157 1196 1197 0
-1198 475 0
-1198 485 0
-1199 475 0
-1199 485 0
-1200 476 0
-1200 481 0
-1201 476 0
-1201 481 0
-158 1198 1199 1200 1201 0
-1202 474 0
-1202 481 0
-1203 474 0
-1203 481 0
-1204 475 0
-1204 484 0
-1205 475 0
-1205 484 0
-159 1202 1203 1204 1205 0
-1206 471 0
-1206 472 0
-1207 471 0
-1207 472 0
-1208 475 0
-1208 479 0
-1209 475 0
-1209 479 0
-160 1206 1207 1208 1209 0
-161 0
-1210 474 0
-1210 476 0
-1211 474 0
-1211 476 0
-1212 482 0
-1212 488 0
-1213 482 0
-1213 488 0
-1214 484 0
-1214 485 0
-1215 484 0
-1215 485 0
-162 1210 1211 1212 1213 1214 1215 0
-1216 481 0
-1216 488 0
-1217 481 0
-1217 488 0
-1218 483 0
-1218 489 0
-1219 483 0
-1219 489 0
-163 1216 1217 1218 1219 0
-1220 482 0
-1220 489 0
-1221 482 0
-1221 489 0
-164 1220 1221 0
-1222 469 0
-1222 471 0
-1223 469 0
-1223 471 0
-1224 487 0
-1224 489 0
-1225 487 0
-1225 489 0
-165 1222 1223 1224 1225 0
-1226 493 0
-1226 494 0
-1227 493 0
-1227 494 0
-166 1226 1227 0
-167 0
-1228 490 0
-1228 494 0
-1229 490 0
-1229 494 0
-1230 494 0
-1230 513 0
-1231 494 0
-1231 513 0
-1232 495 0
-1232 510 0
-1233 495 0
-1233 510 0
-168 1228 1229 1230 1231 1232 1233 0
-1234 490 0
-1234 493 0
-1235 490 0
-1235 493 0
-1236 493 0
-1236 513 0
-1237 493 0
-1237 513 0
-1238 495 0
-1238 511 0
-1239 495 0
-1239 511 0
-169 1234 1235 1236 1237 1238 1239 0
-1240 492 0
-1240 503 0
-1241 492 0
-1241 503 0
-1242 493 0
-1242 510 0
-1243 493 0
-1243 510 0
-1244 494 0
-1244 511 0
-1245 494 0
-1245 511 0
-1246 496 0
-1246 501 0
-1247 496 0
-1247 501 0
-170 1240 1241 1242 1243 1244 1245 1246 1247 0
-1248 492 0
-1248 499 0
-1249 492 0
-1249 499 0
-1250 495 0
-1250 501 0
-1251 495 0
-1251 501 0
-171 1248 1249 1250 1251 0
-1252 499 0
-1252 502 0
-1253 499 0
-1253 502 0
-172 1252 1253 0
-1254 499 0
-1254 509 0
-1255 499 0
-1255 509 0
-1256 500 0
-1256 505 0
-1257 500 0
-1257 505 0
-173 1254 1255 1256 1257 0
-1258 498 0
-1258 505 0
-1259 498 0
-1259 505 0
-1260 499 0
-1260 508 0
-1261 499 0
-1261 508 0
-174 1258 1259 1260 1261 0
-1262 495 0
-1262 496 0
-1263 495 0
-1263 496 0
-1264 499 0
-1264 503 0
-1265 499 0
-1265 503 0
-175 1262 1263 1264 1265 0
-176 0
-1266 498 0
-1266 500 0
-1267 498 0
-1267 500 0
-1268 506 0
-1268 512 0
-1269 506 0
-1269 512 0
-1270 508 0
-1270 509 0
-1271 508 0
-1271 509 0
-177 1266 1267 1268 1269 1270 1271 0
-1272 505 0
-1272 512 0
-1273 505 0
-1273 512 0
-1274 507 0
-1274 513 0
-1275 507 0
-1275 513 0
-178 1272 1273 1274 1275 0
-1276 506 0
-1276 513 0
-1277 506 0
-1277 513 0
-179 1276 1277 0
-1278 493 0
-1278 495 0
-1279 493 0
-1279 495 0
-1280 511 0
-1280 513 0
-1281 511 0
-1281 513 0
-180 1278 1279 1280 1281 0
-1282 517 0
-1282 518 0
-1283 517 0
-1283 518 0
-181 1282 1283 0
-182 0
-1284 514 0
-1284 518 0
-1285 514 0
-1285 518 0
-1286 518 0
-1286 537 0
-1287 518 0
-1287 537 0
-1288 519 0
-1288 534 0
-1289 519 0
-1289 534 0
-183 1284 1285 1286 1287 1288 1289 0
-1290 514 0
-1290 517 0
-1291 514 0
-1291 517 0
-1292 517 0
-1292 537 0
-1293 517 0
-1293 537 0
-1294 519 0
-1294 535 0
-1295 519 0
-1295 535 0
-184 1290 1291 1292 1293 1294 1295 0
-1296 516 0
-1296 527 0
-1297 516 0
-1297 527 0
-1298 517 0
-1298 534 0
-1299 517 0
-1299 534 0
-1300 518 0
-1300 535 0
-1301 518 0
-1301 535 0
-1302 520 0
-1302 525 0
-1303 520 0
-1303 525 0
-185 1296 1297 1298 1299 1300 1301 1302 1303 0
-1304 516 0
-1304 523 0
-1305 516 0
-1305 523 0
-1306 519 0
-1306 525 0
-1307 519 0
-1307 525 0
-186 1304 1305 1306 1307 0
-1308 523 0
-1308 526 0
-1309 523 0
-1309 526 0
-187 1308 1309 0
-1310 523 0
-1310 533 0
-1311 523 0
-1311 533 0
-1312 524 0
-1312 529 0
-1313 524 0
-1313 529 0
-188 1310 1311 1312 1313 0
-1314 522 0
-1314 529 0
-1315 522 0
-1315 529 0
-1316 523 0
-1316 532 0
-1317 523 0
-1317 532 0
-189 1314 1315 1316 1317 0
-1318 519 0
-1318 520 0
-1319 519 0
-1319 520 0
-1320 523 0
-1320 527 0
-1321 523 0
-1321 527 0
-190 1318 1319 1320 1321 0
-191 0
-1322 522 0
-1322 524 0
-1323 522 0
-1323 524 0
-1324 530 0
-1324 536 0
-1325 530 0
-1325 536 0
-1326 532 0
-1326 533 0
-1327 532 0
-1327 533 0
-192 1322 1323 1324 1325 1326 1327 0
-1328 529 0
-1328 536 0
-1329 529 0
-1329 536 0
-1330 531 0
-1330 537 0
-1331 531 0
-1331 537 0
-193 1328 1329 1330 1331 0
-1332 530 0
-1332 537 0
-1333 530 0
-1333 537 0
-194 1332 1333 0
-1334 517 0
-1334 519 0
-1335 517 0
-1335 519 0
-1336 535 0
-1336 537 0
-1337 535 0
-1337 537 0
-195 1334 1335 1336 1337 0
-1338 541 0
-1338 542 0
-1339 541 0
-1339 542 0
-196 1338 1339 0
-197 0
-1340 538 0
-1340 542 0
-1341 538 0
-1341 542 0
-1342 542 0
-1342 561 0
-1343 542 0
-1343 561 0
-1344 543 0
-1344 558 0
-1345 543 0
-1345 558 0
-198 1340 1341 1342 1343 1344 1345 0
-1346 538 0
-1346 541 0
-1347 538 0
-1347 541 0
-1348 541 0
-1348 561 0
-1349 541 0
-1349 561 0
-1350 543 0
-1350 559 0
-1351 543 0
-1351 559 0
-199 1346 1347 1348 1349 1350 1351 0
-1352 540 0
-1352 551 0
-1353 540 0
-1353 551 0
-1354 541 0
-1354 558 0
-1355 541 0
-1355 558 0
-1356 542 0
-1356 559 0
-1357 542 0
-1357 559 0
-1358 544 0
-1358 549 0
-1359 544 0
-1359 549 0
-200 1352 1353 1354 1355 1356 1357 1358 1359 0
-1360 540 0
-1360 547 0
-1361 540 0
-1361 547 0
-1362 543 0
-1362 549 0
-1363 543 0
-1363 549 0
-201 1360 1361 1362 1363 0
-1364 547 0
-1364 550 0
-1365 547 0
-1365 550 0
-202 1364 1365 0
-1366 547 0
-1366 557 0
-1367 547 0
-1367 557 0
-1368 548 0
-1368 553 0
-1369 548 0
-1369 553 0
-203 1366 1367 1368 1369 0
-1370 546 0
-1370 553 0
-1371 546 0
-1371 553 0
-1372 547 0
-1372 556 0
-1373 547 0
-1373 556 0
-204 1370 1371 1372 1373 0
-1374 543 0
-1374 544 0
-1375 543 0
-1375 544 0
-1376 547 0
-1376 551 0
-1377 547 0
-1377 551 0
-205 1374 1375 1376 1377 0
-206 0
-1378 546 0
-1378 548 0
-1379 546 0
-1379 548 0
-1380 554 0
-1380 560 0
-1381 554 0
-1381 560 0
-1382 556 0
-1382 557 0
-1383 556 0
-1383 557 0
-207 1378 1379 1380 1381 1382 1383 0
-1384 553 0
-1384 560 0
-1385 553 0
-1385 560 0
-1386 555 0
-1386 561 0
-1387 555 0
-1387 561 0
-208 1384 1385 1386 1387 0
-1388 554 0
-1388 561 0
-1389 554 0
-1389 561 0
-209 1388 1389 0
-1390 541 0
-1390 543 0
-1391 541 0
-1391 543 0
-1392 559 0
-1392 561 0
-1393 559 0
-1393 561 0
-210 1390 1391 1392 1393 0
-1394 565 0
-1394 566 0
-1395 565 0
-1395 566 0
-211 1394 1395 0
-212 0
-1396 562 0
-1396 566 0
-1397 562 0
-1397 566 0
-1398 566 0
-1398 585 0
-1399 566 0
-1399 585 0
-1400 567 0
-1400 582 0
-1401 567 0
-1401 582 0
-213 1396 1397 1398 1399 1400 1401 0
-1402 562 0
-1402 565 0
-1403 562 0
-1403 565 0
-1404 565 0
-1404 585 0
-1405 565 0
-1405 585 0
-1406 567 0
-1406 583 0
-1407 567 0
-1407 583 0
-214 1402 1403 1404 1405 1406 1407 0
-1408 564 0
-1408 575 0
-1409 564 0
-1409 575 0
-1410 565 0
-1410 582 0
-1411 565 0
-1411 582 0
-1412 566 0
-1412 583 0
-1413 566 0
-1413 583 0
-1414 568 0
-1414 573 0
-1415 568 0
-1415 573 0
-215 1408 1409 1410 1411 1412 1413 1414 1415 0
-1416 564 0
-1416 571 0
-1417 564 0
-1417 571 0
-1418 567 0
-1418 573 0
-1419 567 0
-1419 573 0
-216 1416 1417 1418 1419 0
-1420 571 0
-1420 574 0
-1421 571 0
-1421 574 0
-217 1420 1421 0
-1422 571 0
-1422 581 0
-1423 571 0
-1423 581 0
-1424 572 0
-1424 577 0
-1425 572 0
-1425 577 0
-218 1422 1423 1424 1425 0
-1426 570 0
-1426 577 0
-1427 570 0
-1427 577 0
-1428 571 0
-1428 580 0
-1429 571 0
-1429 580 0
-219 1426 1427 1428 1429 0
-1430 567 0
-1430 568 0
-1431 567 0
-1431 568 0
-1432 571 0
-1432 575 0
-1433 571 0
-1433 575 0
-220 1430 1431 1432 1433 0
-221 0
-1434 570 0
-1434 572 0
-1435 570 0
-1435 572 0
-1436 578 0
-1436 584 0
-1437 578 0
-1437 584 0
-1438 580 0
-1438 581 0
-1439 580 0
-1439 581 0
-222 1434 1435 1436 1437 1438 1439 0
-1440 577 0
-1440 584 0
-1441 577 0
-1441 584 0
-1442 579 0
-1442 585 0
-1443 579 0
-1443 585 0
-223 1440 1441 1442 1443 0
-1444 578 0
-1444 585 0
-1445 578 0
-1445 585 0
-224 1444 1445 0
-1446 565 0
-1446 567 0
-1447 565 0
-1447 567 0
-1448 583 0
-1448 585 0
-1449 583 0
-1449 585 0
-225 1446 1447 1448 1449 0
