p cnf 1569 4119
-1 -2 0
-1 -3 0
-1 -4 0
-1 -5 0
-1 -6 0
-1 -7 0
-1 -8 0
-1 -9 0
-1 -10 0
-1 -11 0
-1 -12 0
-1 -13 0
-1 -14 0
-1 -15 0
-2 -3 0
-2 -4 0
-2 -5 0
-2 -6 0
-2 -7 0
-2 -8 0
-2 -9 0
-2 -10 0
-2 -11 0
-2 -12 0
-2 -13 0
-2 -14 0
-2 -15 0
-3 -4 0
-3 -5 0
-3 -6 0
-3 -7 0
-3 -8 0
-3 -9 0
-3 -10 0
-3 -11 0
-3 -12 0
-3 -13 0
-3 -14 0
-3 -15 0
-4 -5 0
-4 -6 0
-4 -7 0
-4 -8 0
-4 -9 0
-4 -10 0
-4 -11 0
-4 -12 0
-4 -13 0
-4 -14 0
-4 -15 0
-5 -6 0
-5 -7 0
-5 -8 0
-5 -9 0
-5 -10 0
-5 -11 0
-5 -12 0
-5 -13 0
-5 -14 0
-5 -15 0
-6 -7 0
-6 -8 0
-6 -9 0
-6 -10 0
-6 -11 0
-6 -12 0
-6 -13 0
-6 -14 0
-6 -15 0
-7 -8 0
-7 -9 0
-7 -10 0
-7 -11 0
-7 -12 0
-7 -13 0
-7 -14 0
-7 -15 0
-8 -9 0
-8 -10 0
-8 -11 0
-8 -12 0
-8 -13 0
-8 -14 0
-8 -15 0
-9 -10 0
-9 -11 0
-9 -12 0
-9 -13 0
-9 -14 0
-9 -15 0
-10 -11 0
-10 -12 0
-10 -13 0
-10 -14 0
-10 -15 0
-11 -12 0
-11 -13 0
-11 -14 0
-11 -15 0
-12 -13 0
-12 -14 0
-12 -15 0
-13 -14 0
-13 -15 0
-14 -15 0
-250 226 1 0
-251 227 2 0
-252 228 3 0
-253 229 0
-254 230 4 0
-255 231 5 0
-256 232 6 0
-257 233 0
-258 234 0
-259 235 7 0
-260 236 8 0
-261 237 0
-262 238 9 0
-263 239 10 0
-264 240 0
-265 241 11 0
-266 242 12 0
-267 243 13 0
-268 244 0
-269 245 14 0
-270 246 0
-271 247 15 0
-272 248 0
-273 249 0
-16 -17 0
-16 -18 0
-16 -19 0
-16 -20 0
-16 -21 0
-16 -22 0
-16 -23 0
-16 -24 0
-16 -25 0
-16 -26 0
-16 -27 0
-16 -28 0
-16 -29 0
-16 -30 0
-17 -18 0
-17 -19 0
-17 -20 0
-17 -21 0
-17 -22 0
-17 -23 0
-17 -24 0
-17 -25 0
-17 -26 0
-17 -27 0
-17 -28 0
-17 -29 0
-17 -30 0
-18 -19 0
-18 -20 0
-18 -21 0
-18 -22 0
-18 -23 0
-18 -24 0
-18 -25 0
-18 -26 0
-18 -27 0
-18 -28 0
-18 -29 0
-18 -30 0
-19 -20 0
-19 -21 0
-19 -22 0
-19 -23 0
-19 -24 0
-19 -25 0
-19 -26 0
-19 -27 0
-19 -28 0
-19 -29 0
-19 -30 0
-20 -21 0
-20 -22 0
-20 -23 0
-20 -24 0
-20 -25 0
-20 -26 0
-20 -27 0
-20 -28 0
-20 -29 0
-20 -30 0
-21 -22 0
-21 -23 0
-21 -24 0
-21 -25 0
-21 -26 0
-21 -27 0
-21 -28 0
-21 -29 0
-21 -30 0
-22 -23 0
-22 -24 0
-22 -25 0
-22 -26 0
-22 -27 0
-22 -28 0
-22 -29 0
-22 -30 0
-23 -24 0
-23 -25 0
-23 -26 0
-23 -27 0
-23 -28 0
-23 -29 0
-23 -30 0
-24 -25 0
-24 -26 0
-24 -27 0
-24 -28 0
-24 -29 0
-24 -30 0
-25 -26 0
-25 -27 0
-25 -28 0
-25 -29 0
-25 -30 0
-26 -27 0
-26 -28 0
-26 -29 0
-26 -30 0
-27 -28 0
-27 -29 0
-27 -30 0
-28 -29 0
-28 -30 0
-29 -30 0
-274 250 16 0
-275 251 17 0
-276 252 18 0
-277 253 0
-278 254 19 0
-279 255 20 0
-280 256 21 0
-281 257 0
-282 258 0
-283 259 22 0
-284 260 23 0
-285 261 0
-286 262 24 0
-287 263 25 0
-288 264 0
-289 265 26 0
-290 266 27 0
-291 267 28 0
-292 268 0
-293 269 29 0
-294 270 0
-295 271 30 0
-296 272 0
-297 273 0
-31 -32 0
-31 -33 0
-31 -34 0
-31 -35 0
-31 -36 0
-31 -37 0
-31 -38 0
-31 -39 0
-31 -40 0
-31 -41 0
-31 -42 0
-31 -43 0
-31 -44 0
-31 -45 0
-32 -33 0
-32 -34 0
-32 -35 0
-32 -36 0
-32 -37 0
-32 -38 0
-32 -39 0
-32 -40 0
-32 -41 0
-32 -42 0
-32 -43 0
-32 -44 0
-32 -45 0
-33 -34 0
-33 -35 0
-33 -36 0
-33 -37 0
-33 -38 0
-33 -39 0
-33 -40 0
-33 -41 0
-33 -42 0
-33 -43 0
-33 -44 0
-33 -45 0
-34 -35 0
-34 -36 0
-34 -37 0
-34 -38 0
-34 -39 0
-34 -40 0
-34 -41 0
-34 -42 0
-34 -43 0
-34 -44 0
-34 -45 0
-35 -36 0
-35 -37 0
-35 -38 0
-35 -39 0
-35 -40 0
-35 -41 0
-35 -42 0
-35 -43 0
-35 -44 0
-35 -45 0
-36 -37 0
-36 -38 0
-36 -39 0
-36 -40 0
-36 -41 0
-36 -42 0
-36 -43 0
-36 -44 0
-36 -45 0
-37 -38 0
-37 -39 0
-37 -40 0
-37 -41 0
-37 -42 0
-37 -43 0
-37 -44 0
-37 -45 0
-38 -39 0
-38 -40 0
-38 -41 0
-38 -42 0
-38 -43 0
-38 -44 0
-38 -45 0
-39 -40 0
-39 -41 0
-39 -42 0
-39 -43 0
-39 -44 0
-39 -45 0
-40 -41 0
-40 -42 0
-40 -43 0
-40 -44 0
-40 -45 0
-41 -42 0
-41 -43 0
-41 -44 0
-41 -45 0
-42 -43 0
-42 -44 0
-42 -45 0
-43 -44 0
-43 -45 0
-44 -45 0
-298 274 31 0
-299 275 32 0
-300 276 33 0
-301 277 0
-302 278 34 0
-303 279 35 0
-304 280 36 0
-305 281 0
-306 282 0
-307 283 37 0
-308 284 38 0
-309 285 0
-310 286 39 0
-311 287 40 0
-312 288 0
-313 289 41 0
-314 290 42 0
-315 291 43 0
-316 292 0
-317 293 44 0
-318 294 0
-319 295 45 0
-320 296 0
-321 297 0
-46 -47 0
-46 -48 0
-46 -49 0
-46 -50 0
-46 -51 0
-46 -52 0
-46 -53 0
-46 -54 0
-46 -55 0
-46 -56 0
-46 -57 0
-46 -58 0
-46 -59 0
-46 -60 0
-47 -48 0
-47 -49 0
-47 -50 0
-47 -51 0
-47 -52 0
-47 -53 0
-47 -54 0
-47 -55 0
-47 -56 0
-47 -57 0
-47 -58 0
-47 -59 0
-47 -60 0
-48 -49 0
-48 -50 0
-48 -51 0
-48 -52 0
-48 -53 0
-48 -54 0
-48 -55 0
-48 -56 0
-48 -57 0
-48 -58 0
-48 -59 0
-48 -60 0
-49 -50 0
-49 -51 0
-49 -52 0
-49 -53 0
-49 -54 0
-49 -55 0
-49 -56 0
-49 -57 0
-49 -58 0
-49 -59 0
-49 -60 0
-50 -51 0
-50 -52 0
-50 -53 0
-50 -54 0
-50 -55 0
-50 -56 0
-50 -57 0
-50 -58 0
-50 -59 0
-50 -60 0
-51 -52 0
-51 -53 0
-51 -54 0
-51 -55 0
-51 -56 0
-51 -57 0
-51 -58 0
-51 -59 0
-51 -60 0
-52 -53 0
-52 -54 0
-52 -55 0
-52 -56 0
-52 -57 0
-52 -58 0
-52 -59 0
-52 -60 0
-53 -54 0
-53 -55 0
-53 -56 0
-53 -57 0
-53 -58 0
-53 -59 0
-53 -60 0
-54 -55 0
-54 -56 0
-54 -57 0
-54 -58 0
-54 -59 0
-54 -60 0
-55 -56 0
-55 -57 0
-55 -58 0
-55 -59 0
-55 -60 0
-56 -57 0
-56 -58 0
-56 -59 0
-56 -60 0
-57 -58 0
-57 -59 0
-57 -60 0
-58 -59 0
-58 -60 0
-59 -60 0
-322 298 46 0
-323 299 47 0
-324 300 48 0
-325 301 0
-326 302 49 0
-327 303 50 0
-328 304 51 0
-329 305 0
-330 306 0
-331 307 52 0
-332 308 53 0
-333 309 0
-334 310 54 0
-335 311 55 0
-336 312 0
-337 313 56 0
-338 314 57 0
-339 315 58 0
-340 316 0
-341 317 59 0
-342 318 0
-343 319 60 0
-344 320 0
-345 321 0
-61 -62 0
-61 -63 0
-61 -64 0
-61 -65 0
-61 -66 0
-61 -67 0
-61 -68 0
-61 -69 0
-61 -70 0
-61 -71 0
-61 -72 0
-61 -73 0
-61 -74 0
-61 -75 0
-62 -63 0
-62 -64 0
-62 -65 0
-62 -66 0
-62 -67 0
-62 -68 0
-62 -69 0
-62 -70 0
-62 -71 0
-62 -72 0
-62 -73 0
-62 -74 0
-62 -75 0
-63 -64 0
-63 -65 0
-63 -66 0
-63 -67 0
-63 -68 0
-63 -69 0
-63 -70 0
-63 -71 0
-63 -72 0
-63 -73 0
-63 -74 0
-63 -75 0
-64 -65 0
-64 -66 0
-64 -67 0
-64 -68 0
-64 -69 0
-64 -70 0
-64 -71 0
-64 -72 0
-64 -73 0
-64 -74 0
-64 -75 0
-65 -66 0
-65 -67 0
-65 -68 0
-65 -69 0
-65 -70 0
-65 -71 0
-65 -72 0
-65 -73 0
-65 -74 0
-65 -75 0
-66 -67 0
-66 -68 0
-66 -69 0
-66 -70 0
-66 -71 0
-66 -72 0
-66 -73 0
-66 -74 0
-66 -75 0
-67 -68 0
-67 -69 0
-67 -70 0
-67 -71 0
-67 -72 0
-67 -73 0
-67 -74 0
-67 -75 0
-68 -69 0
-68 -70 0
-68 -71 0
-68 -72 0
-68 -73 0
-68 -74 0
-68 -75 0
-69 -70 0
-69 -71 0
-69 -72 0
-69 -73 0
-69 -74 0
-69 -75 0
-70 -71 0
-70 -72 0
-70 -73 0
-70 -74 0
-70 -75 0
-71 -72 0
-71 -73 0
-71 -74 0
-71 -75 0
-72 -73 0
-72 -74 0
-72 -75 0
-73 -74 0
-73 -75 0
-74 -75 0
-346 322 61 0
-347 323 62 0
-348 324 63 0
-349 325 0
-350 326 64 0
-351 327 65 0
-352 328 66 0
-353 329 0
-354 330 0
-355 331 67 0
-356 332 68 0
-357 333 0
-358 334 69 0
-359 335 70 0
-360 336 0
-361 337 71 0
-362 338 72 0
-363 339 73 0
-364 340 0
-365 341 74 0
-366 342 0
-367 343 75 0
-368 344 0
-369 345 0
-76 -77 0
-76 -78 0
-76 -79 0
-76 -80 0
-76 -81 0
-76 -82 0
-76 -83 0
-76 -84 0
-76 -85 0
-76 -86 0
-76 -87 0
-76 -88 0
-76 -89 0
-76 -90 0
-77 -78 0
-77 -79 0
-77 -80 0
-77 -81 0
-77 -82 0
-77 -83 0
-77 -84 0
-77 -85 0
-77 -86 0
-77 -87 0
-77 -88 0
-77 -89 0
-77 -90 0
-78 -79 0
-78 -80 0
-78 -81 0
-78 -82 0
-78 -83 0
-78 -84 0
-78 -85 0
-78 -86 0
-78 -87 0
-78 -88 0
-78 -89 0
-78 -90 0
-79 -80 0
-79 -81 0
-79 -82 0
-79 -83 0
-79 -84 0
-79 -85 0
-79 -86 0
-79 -87 0
-79 -88 0
-79 -89 0
-79 -90 0
-80 -81 0
-80 -82 0
-80 -83 0
-80 -84 0
-80 -85 0
-80 -86 0
-80 -87 0
-80 -88 0
-80 -89 0
-80 -90 0
-81 -82 0
-81 -83 0
-81 -84 0
-81 -85 0
-81 -86 0
-81 -87 0
-81 -88 0
-81 -89 0
-81 -90 0
-82 -83 0
-82 -84 0
-82 -85 0
-82 -86 0
-82 -87 0
-82 -88 0
-82 -89 0
-82 -90 0
-83 -84 0
-83 -85 0
-83 -86 0
-83 -87 0
-83 -88 0
-83 -89 0
-83 -90 0
-84 -85 0
-84 -86 0
-84 -87 0
-84 -88 0
-84 -89 0
-84 -90 0
-85 -86 0
-85 -87 0
-85 -88 0
-85 -89 0
-85 -90 0
-86 -87 0
-86 -88 0
-86 -89 0
-86 -90 0
-87 -88 0
-87 -89 0
-87 -90 0
-88 -89 0
-88 -90 0
-89 -90 0
-370 346 76 0
-371 347 77 0
-372 348 78 0
-373 349 0
-374 350 79 0
-375 351 80 0
-376 352 81 0
-377 353 0
-378 354 0
-379 355 82 0
-380 356 83 0
-381 357 0
-382 358 84 0
-383 359 85 0
-384 360 0
-385 361 86 0
-386 362 87 0
-387 363 88 0
-388 364 0
-389 365 89 0
-390 366 0
-391 367 90 0
-392 368 0
-393 369 0
-91 -92 0
-91 -93 0
-91 -94 0
-91 -95 0
-91 -96 0
-91 -97 0
-91 -98 0
-91 -99 0
-91 -100 0
-91 -101 0
-91 -102 0
-91 -103 0
-91 -104 0
-91 -105 0
-92 -93 0
-92 -94 0
-92 -95 0
-92 -96 0
-92 -97 0
-92 -98 0
-92 -99 0
-92 -100 0
-92 -101 0
-92 -102 0
-92 -103 0
-92 -104 0
-92 -105 0
-93 -94 0
-93 -95 0
-93 -96 0
-93 -97 0
-93 -98 0
-93 -99 0
-93 -100 0
-93 -101 0
-93 -102 0
-93 -103 0
-93 -104 0
-93 -105 0
-94 -95 0
-94 -96 0
-94 -97 0
-94 -98 0
-94 -99 0
-94 -100 0
-94 -101 0
-94 -102 0
-94 -103 0
-94 -104 0
-94 -105 0
-95 -96 0
-95 -97 0
-95 -98 0
-95 -99 0
-95 -100 0
-95 -101 0
-95 -102 0
-95 -103 0
-95 -104 0
-95 -105 0
-96 -97 0
-96 -98 0
-96 -99 0
-96 -100 0
-96 -101 0
-96 -102 0
-96 -103 0
-96 -104 0
-96 -105 0
-97 -98 0
-97 -99 0
-97 -100 0
-97 -101 0
-97 -102 0
-97 -103 0
-97 -104 0
-97 -105 0
-98 -99 0
-98 -100 0
-98 -101 0
-98 -102 0
-98 -103 0
-98 -104 0
-98 -105 0
-99 -100 0
-99 -101 0
-99 -102 0
-99 -103 0
-99 -104 0
-99 -105 0
-100 -101 0
-100 -102 0
-100 -103 0
-100 -104 0
-100 -105 0
-101 -102 0
-101 -103 0
-101 -104 0
-101 -105 0
-102 -103 0
-102 -104 0
-102 -105 0
-103 -104 0
-103 -105 0
-104 -105 0
-394 370 91 0
-395 371 92 0
-396 372 93 0
-397 373 0
-398 374 94 0
-399 375 95 0
-400 376 96 0
-401 377 0
-402 378 0
-403 379 97 0
-404 380 98 0
-405 381 0
-406 382 99 0
-407 383 100 0
-408 384 0
-409 385 101 0
-410 386 102 0
-411 387 103 0
-412 388 0
-413 389 104 0
-414 390 0
-415 391 105 0
-416 392 0
-417 393 0
-106 -107 0
-106 -108 0
-106 -109 0
-106 -110 0
-106 -111 0
-106 -112 0
-106 -113 0
-106 -114 0
-106 -115 0
-106 -116 0
-106 -117 0
-106 -118 0
-106 -119 0
-106 -120 0
-107 -108 0
-107 -109 0
-107 -110 0
-107 -111 0
-107 -112 0
-107 -113 0
-107 -114 0
-107 -115 0
-107 -116 0
-107 -117 0
-107 -118 0
-107 -119 0
-107 -120 0
-108 -109 0
-108 -110 0
-108 -111 0
-108 -112 0
-108 -113 0
-108 -114 0
-108 -115 0
-108 -116 0
-108 -117 0
-108 -118 0
-108 -119 0
-108 -120 0
-109 -110 0
-109 -111 0
-109 -112 0
-109 -113 0
-109 -114 0
-109 -115 0
-109 -116 0
-109 -117 0
-109 -118 0
-109 -119 0
-109 -120 0
-110 -111 0
-110 -112 0
-110 -113 0
-110 -114 0
-110 -115 0
-110 -116 0
-110 -117 0
-110 -118 0
-110 -119 0
-110 -120 0
-111 -112 0
-111 -113 0
-111 -114 0
-111 -115 0
-111 -116 0
-111 -117 0
-111 -118 0
-111 -119 0
-111 -120 0
-112 -113 0
-112 -114 0
-112 -115 0
-112 -116 0
-112 -117 0
-112 -118 0
-112 -119 0
-112 -120 0
-113 -114 0
-113 -115 0
-113 -116 0
-113 -117 0
-113 -118 0
-113 -119 0
-113 -120 0
-114 -115 0
-114 -116 0
-114 -117 0
-114 -118 0
-114 -119 0
-114 -120 0
-115 -116 0
-115 -117 0
-115 -118 0
-115 -119 0
-115 -120 0
-116 -117 0
-116 -118 0
-116 -119 0
-116 -120 0
-117 -118 0
-117 -119 0
-117 -120 0
-118 -119 0
-118 -120 0
-119 -120 0
-418 394 106 0
-419 395 107 0
-420 396 108 0
-421 397 0
-422 398 109 0
-423 399 110 0
-424 400 111 0
-425 401 0
-426 402 0
-427 403 112 0
-428 404 113 0
-429 405 0
-430 406 114 0
-431 407 115 0
-432 408 0
-433 409 116 0
-434 410 117 0
-435 411 118 0
-436 412 0
-437 413 119 0
-438 414 0
-439 415 120 0
-440 416 0
-441 417 0
-121 -122 0
-121 -123 0
-121 -124 0
-121 -125 0
-121 -126 0
-121 -127 0
-121 -128 0
-121 -129 0
-121 -130 0
-121 -131 0
-121 -132 0
-121 -133 0
-121 -134 0
-121 -135 0
-122 -123 0
-122 -124 0
-122 -125 0
-122 -126 0
-122 -127 0
-122 -128 0
-122 -129 0
-122 -130 0
-122 -131 0
-122 -132 0
-122 -133 0
-122 -134 0
-122 -135 0
-123 -124 0
-123 -125 0
-123 -126 0
-123 -127 0
-123 -128 0
-123 -129 0
-123 -130 0
-123 -131 0
-123 -132 0
-123 -133 0
-123 -134 0
-123 -135 0
-124 -125 0
-124 -126 0
-124 -127 0
-124 -128 0
-124 -129 0
-124 -130 0
-124 -131 0
-124 -132 0
-124 -133 0
-124 -134 0
-124 -135 0
-125 -126 0
-125 -127 0
-125 -128 0
-125 -129 0
-125 -130 0
-125 -131 0
-125 -132 0
-125 -133 0
-125 -134 0
-125 -135 0
-126 -127 0
-126 -128 0
-126 -129 0
-126 -130 0
-126 -131 0
-126 -132 0
-126 -133 0
-126 -134 0
-126 -135 0
-127 -128 0
-127 -129 0
-127 -130 0
-127 -131 0
-127 -132 0
-127 -133 0
-127 -134 0
-127 -135 0
-128 -129 0
-128 -130 0
-128 -131 0
-128 -132 0
-128 -133 0
-128 -134 0
-128 -135 0
-129 -130 0
-129 -131 0
-129 -132 0
-129 -133 0
-129 -134 0
-129 -135 0
-130 -131 0
-130 -132 0
-130 -133 0
-130 -134 0
-130 -135 0
-131 -132 0
-131 -133 0
-131 -134 0
-131 -135 0
-132 -133 0
-132 -134 0
-132 -135 0
-133 -134 0
-133 -135 0
-134 -135 0
-442 418 121 0
-443 419 122 0
-444 420 123 0
-445 421 0
-446 422 124 0
-447 423 125 0
-448 424 126 0
-449 425 0
-450 426 0
-451 427 127 0
-452 428 128 0
-453 429 0
-454 430 129 0
-455 431 130 0
-456 432 0
-457 433 131 0
-458 434 132 0
-459 435 133 0
-460 436 0
-461 437 134 0
-462 438 0
-463 439 135 0
-464 440 0
-465 441 0
-136 -137 0
-136 -138 0
-136 -139 0
-136 -140 0
-136 -141 0
-136 -142 0
-136 -143 0
-136 -144 0
-136 -145 0
-136 -146 0
-136 -147 0
-136 -148 0
-136 -149 0
-136 -150 0
-137 -138 0
-137 -139 0
-137 -140 0
-137 -141 0
-137 -142 0
-137 -143 0
-137 -144 0
-137 -145 0
-137 -146 0
-137 -147 0
-137 -148 0
-137 -149 0
-137 -150 0
-138 -139 0
-138 -140 0
-138 -141 0
-138 -142 0
-138 -143 0
-138 -144 0
-138 -145 0
-138 -146 0
-138 -147 0
-138 -148 0
-138 -149 0
-138 -150 0
-139 -140 0
-139 -141 0
-139 -142 0
-139 -143 0
-139 -144 0
-139 -145 0
-139 -146 0
-139 -147 0
-139 -148 0
-139 -149 0
-139 -150 0
-140 -141 0
-140 -142 0
-140 -143 0
-140 -144 0
-140 -145 0
-140 -146 0
-140 -147 0
-140 -148 0
-140 -149 0
-140 -150 0
-141 -142 0
-141 -143 0
-141 -144 0
-141 -145 0
-141 -146 0
-141 -147 0
-141 -148 0
-141 -149 0
-141 -150 0
-142 -143 0
-142 -144 0
-142 -145 0
-142 -146 0
-142 -147 0
-142 -148 0
-142 -149 0
-142 -150 0
-143 -144 0
-143 -145 0
-143 -146 0
-143 -147 0
-143 -148 0
-143 -149 0
-143 -150 0
-144 -145 0
-144 -146 0
-144 -147 0
-144 -148 0
-144 -149 0
-144 -150 0
-145 -146 0
-145 -147 0
-145 -148 0
-145 -149 0
-145 -150 0
-146 -147 0
-146 -148 0
-146 -149 0
-146 -150 0
-147 -148 0
-147 -149 0
-147 -150 0
-148 -149 0
-148 -150 0
-149 -150 0
-466 442 136 0
-467 443 137 0
-468 444 138 0
-469 445 0
-470 446 139 0
-471 447 140 0
-472 448 141 0
-473 449 0
-474 450 0
-475 451 142 0
-476 452 143 0
-477 453 0
-478 454 144 0
-479 455 145 0
-480 456 0
-481 457 146 0
-482 458 147 0
-483 459 148 0
-484 460 0
-485 461 149 0
-486 462 0
-487 463 150 0
-488 464 0
-489 465 0
-151 -152 0
-151 -153 0
-151 -154 0
-151 -155 0
-151 -156 0
-151 -157 0
-151 -158 0
-151 -159 0
-151 -160 0
-151 -161 0
-151 -162 0
-151 -163 0
-151 -164 0
-151 -165 0
-152 -153 0
-152 -154 0
-152 -155 0
-152 -156 0
-152 -157 0
-152 -158 0
-152 -159 0
-152 -160 0
-152 -161 0
-152 -162 0
-152 -163 0
-152 -164 0
-152 -165 0
-153 -154 0
-153 -155 0
-153 -156 0
-153 -157 0
-153 -158 0
-153 -159 0
-153 -160 0
-153 -161 0
-153 -162 0
-153 -163 0
-153 -164 0
-153 -165 0
-154 -155 0
-154 -156 0
-154 -157 0
-154 -158 0
-154 -159 0
-154 -160 0
-154 -161 0
-154 -162 0
-154 -163 0
-154 -164 0
-154 -165 0
-155 -156 0
-155 -157 0
-155 -158 0
-155 -159 0
-155 -160 0
-155 -161 0
-155 -162 0
-155 -163 0
-155 -164 0
-155 -165 0
-156 -157 0
-156 -158 0
-156 -159 0
-156 -160 0
-156 -161 0
-156 -162 0
-156 -163 0
-156 -164 0
-156 -165 0
-157 -158 0
-157 -159 0
-157 -160 0
-157 -161 0
-157 -162 0
-157 -163 0
-157 -164 0
-157 -165 0
-158 -159 0
-158 -160 0
-158 -161 0
-158 -162 0
-158 -163 0
-158 -164 0
-158 -165 0
-159 -160 0
-159 -161 0
-159 -162 0
-159 -163 0
-159 -164 0
-159 -165 0
-160 -161 0
-160 -162 0
-160 -163 0
-160 -164 0
-160 -165 0
-161 -162 0
-161 -163 0
-161 -164 0
-161 -165 0
-162 -163 0
-162 -164 0
-162 -165 0
-163 -164 0
-163 -165 0
-164 -165 0
-490 466 151 0
-491 467 152 0
-492 468 153 0
-493 469 0
-494 470 154 0
-495 471 155 0
-496 472 156 0
-497 473 0
-498 474 0
-499 475 157 0
-500 476 158 0
-501 477 0
-502 478 159 0
-503 479 160 0
-504 480 0
-505 481 161 0
-506 482 162 0
-507 483 163 0
-508 484 0
-509 485 164 0
-510 486 0
-511 487 165 0
-512 488 0
-513 489 0
-166 -167 0
-166 -168 0
-166 -169 0
-166 -170 0
-166 -171 0
-166 -172 0
-166 -173 0
-166 -174 0
-166 -175 0
-166 -176 0
-166 -177 0
-166 -178 0
-166 -179 0
-166 -180 0
-167 -168 0
-167 -169 0
-167 -170 0
-167 -171 0
-167 -172 0
-167 -173 0
-167 -174 0
-167 -175 0
-167 -176 0
-167 -177 0
-167 -178 0
-167 -179 0
-167 -180 0
-168 -169 0
-168 -170 0
-168 -171 0
-168 -172 0
-168 -173 0
-168 -174 0
-168 -175 0
-168 -176 0
-168 -177 0
-168 -178 0
-168 -179 0
-168 -180 0
-169 -170 0
-169 -171 0
-169 -172 0
-169 -173 0
-169 -174 0
-169 -175 0
-169 -176 0
-169 -177 0
-169 -178 0
-169 -179 0
-169 -180 0
-170 -171 0
-170 -172 0
-170 -173 0
-170 -174 0
-170 -175 0
-170 -176 0
-170 -177 0
-170 -178 0
-170 -179 0
-170 -180 0
-171 -172 0
-171 -173 0
-171 -174 0
-171 -175 0
-171 -176 0
-171 -177 0
-171 -178 0
-171 -179 0
-171 -180 0
-172 -173 0
-172 -174 0
-172 -175 0
-172 -176 0
-172 -177 0
-172 -178 0
-172 -179 0
-172 -180 0
-173 -174 0
-173 -175 0
-173 -176 0
-173 -177 0
-173 -178 0
-173 -179 0
-173 -180 0
-174 -175 0
-174 -176 0
-174 -177 0
-174 -178 0
-174 -179 0
-174 -180 0
-175 -176 0
-175 -177 0
-175 -178 0
-175 -179 0
-175 -180 0
-176 -177 0
-176 -178 0
-176 -179 0
-176 -180 0
-177 -178 0
-177 -179 0
-177 -180 0
-178 -179 0
-178 -180 0
-179 -180 0
-514 490 166 0
-515 491 167 0
-516 492 168 0
-517 493 0
-518 494 169 0
-519 495 170 0
-520 496 171 0
-521 497 0
-522 498 0
-523 499 172 0
-524 500 173 0
-525 501 0
-526 502 174 0
-527 503 175 0
-528 504 0
-529 505 176 0
-530 506 177 0
-531 507 178 0
-532 508 0
-533 509 179 0
-534 510 0
-535 511 180 0
-536 512 0
-537 513 0
-181 -182 0
-181 -183 0
-181 -184 0
-181 -185 0
-181 -186 0
-181 -187 0
-181 -188 0
-181 -189 0
-181 -190 0
-181 -191 0
-181 -192 0
-181 -193 0
-181 -194 0
-181 -195 0
-182 -183 0
-182 -184 0
-182 -185 0
-182 -186 0
-182 -187 0
-182 -188 0
-182 -189 0
-182 -190 0
-182 -191 0
-182 -192 0
-182 -193 0
-182 -194 0
-182 -195 0
-183 -184 0
-183 -185 0
-183 -186 0
-183 -187 0
-183 -188 0
-183 -189 0
-183 -190 0
-183 -191 0
-183 -192 0
-183 -193 0
-183 -194 0
-183 -195 0
-184 -185 0
-184 -186 0
-184 -187 0
-184 -188 0
-184 -189 0
-184 -190 0
-184 -191 0
-184 -192 0
-184 -193 0
-184 -194 0
-184 -195 0
-185 -186 0
-185 -187 0
-185 -188 0
-185 -189 0
-185 -190 0
-185 -191 0
-185 -192 0
-185 -193 0
-185 -194 0
-185 -195 0
-186 -187 0
-186 -188 0
-186 -189 0
-186 -190 0
-186 -191 0
-186 -192 0
-186 -193 0
-186 -194 0
-186 -195 0
-187 -188 0
-187 -189 0
-187 -190 0
-187 -191 0
-187 -192 0
-187 -193 0
-187 -194 0
-187 -195 0
-188 -189 0
-188 -190 0
-188 -191 0
-188 -192 0
-188 -193 0
-188 -194 0
-188 -195 0
-189 -190 0
-189 -191 0
-189 -192 0
-189 -193 0
-189 -194 0
-189 -195 0
-190 -191 0
-190 -192 0
-190 -193 0
-190 -194 0
-190 -195 0
-191 -192 0
-191 -193 0
-191 -194 0
-191 -195 0
-192 -193 0
-192 -194 0
-192 -195 0
-193 -194 0
-193 -195 0
-194 -195 0
-538 514 181 0
-539 515 182 0
-540 516 183 0
-541 517 0
-542 518 184 0
-543 519 185 0
-544 520 186 0
-545 521 0
-546 522 0
-547 523 187 0
-548 524 188 0
-549 525 0
-550 526 189 0
-551 527 190 0
-552 528 0
-553 529 191 0
-554 530 192 0
-555 531 193 0
-556 532 0
-557 533 194 0
-558 534 0
-559 535 195 0
-560 536 0
-561 537 0
-196 -197 0
-196 -198 0
-196 -199 0
-196 -200 0
-196 -201 0
-196 -202 0
-196 -203 0
-196 -204 0
-196 -205 0
-196 -206 0
-196 -207 0
-196 -208 0
-196 -209 0
-196 -210 0
-197 -198 0
-197 -199 0
-197 -200 0
-197 -201 0
-197 -202 0
-197 -203 0
-197 -204 0
-197 -205 0
-197 -206 0
-197 -207 0
-197 -208 0
-197 -209 0
-197 -210 0
-198 -199 0
-198 -200 0
-198 -201 0
-198 -202 0
-198 -203 0
-198 -204 0
-198 -205 0
-198 -206 0
-198 -207 0
-198 -208 0
-198 -209 0
-198 -210 0
-199 -200 0
-199 -201 0
-199 -202 0
-199 -203 0
-199 -204 0
-199 -205 0
-199 -206 0
-199 -207 0
-199 -208 0
-199 -209 0
-199 -210 0
-200 -201 0
-200 -202 0
-200 -203 0
-200 -204 0
-200 -205 0
-200 -206 0
-200 -207 0
-200 -208 0
-200 -209 0
-200 -210 0
-201 -202 0
-201 -203 0
-201 -204 0
-201 -205 0
-201 -206 0
-201 -207 0
-201 -208 0
-201 -209 0
-201 -210 0
-202 -203 0
-202 -204 0
-202 -205 0
-202 -206 0
-202 -207 0
-202 -208 0
-202 -209 0
-202 -210 0
-203 -204 0
-203 -205 0
-203 -206 0
-203 -207 0
-203 -208 0
-203 -209 0
-203 -210 0
-204 -205 0
-204 -206 0
-204 -207 0
-204 -208 0
-204 -209 0
-204 -210 0
-205 -206 0
-205 -207 0
-205 -208 0
-205 -209 0
-205 -210 0
-206 -207 0
-206 -208 0
-206 -209 0
-206 -210 0
-207 -208 0
-207 -209 0
-207 -210 0
-208 -209 0
-208 -210 0
-209 -210 0
-562 538 196 0
-563 539 197 0
-564 540 198 0
-565 541 0
-566 542 199 0
-567 543 200 0
-568 544 201 0
-569 545 0
-570 546 0
-571 547 202 0
-572 548 203 0
-573 549 0
-574 550 204 0
-575 551 205 0
-576 552 0
-577 553 206 0
-578 554 207 0
-579 555 208 0
-580 556 0
-581 557 209 0
-582 558 0
-583 559 210 0
-584 560 0
-585 561 0
-211 -212 0
-211 -213 0
-211 -214 0
-211 -215 0
-211 -216 0
-211 -217 0
-211 -218 0
-211 -219 0
-211 -220 0
-211 -221 0
-211 -222 0
-211 -223 0
-211 -224 0
-211 -225 0
-212 -213 0
-212 -214 0
-212 -215 0
-212 -216 0
-212 -217 0
-212 -218 0
-212 -219 0
-212 -220 0
-212 -221 0
-212 -222 0
-212 -223 0
-212 -224 0
-212 -225 0
-213 -214 0
-213 -215 0
-213 -216 0
-213 -217 0
-213 -218 0
-213 -219 0
-213 -220 0
-213 -221 0
-213 -222 0
-213 -223 0
-213 -224 0
-213 -225 0
-214 -215 0
-214 -216 0
-214 -217 0
-214 -218 0
-214 -219 0
-214 -220 0
-214 -221 0
-214 -222 0
-214 -223 0
-214 -224 0
-214 -225 0
-215 -216 0
-215 -217 0
-215 -218 0
-215 -219 0
-215 -220 0
-215 -221 0
-215 -222 0
-215 -223 0
-215 -224 0
-215 -225 0
-216 -217 0
-216 -218 0
-216 -219 0
-216 -220 0
-216 -221 0
-216 -222 0
-216 -223 0
-216 -224 0
-216 -225 0
-217 -218 0
-217 -219 0
-217 -220 0
-217 -221 0
-217 -222 0
-217 -223 0
-217 -224 0
-217 -225 0
-218 -219 0
-218 -220 0
-218 -221 0
-218 -222 0
-218 -223 0
-218 -224 0
-218 -225 0
-219 -220 0
-219 -221 0
-219 -222 0
-219 -223 0
-219 -224 0
-219 -225 0
-220 -221 0
-220 -222 0
-220 -223 0
-220 -224 0
-220 -225 0
-221 -222 0
-221 -223 0
-221 -224 0
-221 -225 0
-222 -223 0
-222 -224 0
-222 -225 0
-223 -224 0
-223 -225 0
-224 -225 0
-586 562 211 0
-587 563 212 0
-588 564 213 0
-589 565 0
-590 566 214 0
-591 567 215 0
-592 568 216 0
-593 569 0
-594 570 0
-595 571 217 0
-596 572 218 0
-597 573 0
-598 574 219 0
-599 575 220 0
-600 576 0
-601 577 221 0
-602 578 222 0
-603 579 223 0
-604 580 0
-605 581 224 0
-606 582 0
-607 583 225 0
-608 584 0
-609 585 0
-226 0
-227 0
-228 0
229 0
-230 0
-231 0
-232 0
233 0
234 0
-235 0
-236 0
237 0
-238 0
-239 0
240 0
-241 0
-242 0
-243 0
244 0
-245 0
246 0
-247 0
248 0
249 0
1 16 31 46 61 76 91 106 121 136 151 166 181 196 211 0
2 17 32 47 62 77 92 107 122 137 152 167 182 197 212 0
3 18 33 48 63 78 93 108 123 138 153 168 183 198 213 0
4 19 34 49 64 79 94 109 124 139 154 169 184 199 214 0
5 20 35 50 65 80 95 110 125 140 155 170 185 200 215 0
6 21 36 51 66 81 96 111 126 141 156 171 186 201 216 0
7 22 37 52 67 82 97 112 127 142 157 172 187 202 217 0
8 23 38 53 68 83 98 113 128 143 158 173 188 203 218 0
9 24 39 54 69 84 99 114 129 144 159 174 189 204 219 0
10 25 40 55 70 85 100 115 130 145 160 175 190 205 220 0
11 26 41 56 71 86 101 116 131 146 161 176 191 206 221 0
12 27 42 57 72 87 102 117 132 147 162 177 192 207 222 0
13 28 43 58 73 88 103 118 133 148 163 178 193 208 223 0
14 29 44 59 74 89 104 119 134 149 164 179 194 209 224 0
15 30 45 60 75 90 105 120 135 150 165 180 195 210 225 0
-1 0
-610 228 0
-610 241 0
-611 228 0
-611 241 0
-612 231 0
-612 232 0
-613 231 0
-613 232 0
-2 610 611 612 613 0
-614 227 0
-614 241 0
-615 227 0
-615 241 0
-616 231 0
-616 233 0
-617 231 0
-617 233 0
-3 614 615 616 617 0
-618 229 0
-618 246 0
-619 229 0
-619 246 0
-620 231 0
-620 236 0
-621 231 0
-621 236 0
-4 618 619 620 621 0
-622 227 0
-622 232 0
-623 227 0
-623 232 0
-624 228 0
-624 233 0
-625 228 0
-625 233 0
-626 229 0
-626 234 0
-627 229 0
-627 234 0
-628 230 0
-628 236 0
-629 230 0
-629 236 0
-5 622 623 624 625 626 627 628 629 0
-630 227 0
-630 231 0
-631 227 0
-631 231 0
-632 233 0
-632 241 0
-633 233 0
-633 241 0
-6 630 631 632 633 0
-7 0
-634 230 0
-634 231 0
-635 230 0
-635 231 0
-636 234 0
-636 246 0
-637 234 0
-637 246 0
-8 634 635 636 637 0
-638 239 0
-638 248 0
-639 239 0
-639 248 0
-640 240 0
-640 243 0
-641 240 0
-641 243 0
-9 638 639 640 641 0
-642 238 0
-642 248 0
-643 238 0
-643 248 0
-644 240 0
-644 244 0
-645 240 0
-645 244 0
-646 241 0
-646 243 0
-647 241 0
-647 243 0
-10 642 643 644 645 646 647 0
-648 227 0
-648 228 0
-649 227 0
-649 228 0
-650 232 0
-650 233 0
-651 232 0
-651 233 0
-652 239 0
-652 243 0
-653 239 0
-653 243 0
-654 240 0
-654 248 0
-655 240 0
-655 248 0
-11 648 649 650 651 652 653 654 655 0
-656 244 0
-656 247 0
-657 244 0
-657 247 0
-658 245 0
-658 246 0
-659 245 0
-659 246 0
-12 656 657 658 659 0
-660 238 0
-660 240 0
-661 238 0
-661 240 0
-662 239 0
-662 241 0
-663 239 0
-663 241 0
-664 244 0
-664 248 0
-665 244 0
-665 248 0
-13 660 661 662 663 664 665 0
-666 242 0
-666 246 0
-667 242 0
-667 246 0
-668 244 0
-668 249 0
-669 244 0
-669 249 0
-14 666 667 668 669 0
-670 242 0
-670 244 0
-671 242 0
-671 244 0
-672 246 0
-672 249 0
-673 246 0
-673 249 0
-15 670 671 672 673 0
-16 0
-674 252 0
-674 265 0
-675 252 0
-675 265 0
-676 255 0
-676 256 0
-677 255 0
-677 256 0
-17 674 675 676 677 0
-678 251 0
-678 265 0
-679 251 0
-679 265 0
-680 255 0
-680 257 0
-681 255 0
-681 257 0
-18 678 679 680 681 0
-682 253 0
-682 270 0
-683 253 0
-683 270 0
-684 255 0
-684 260 0
-685 255 0
-685 260 0
-19 682 683 684 685 0
-686 251 0
-686 256 0
-687 251 0
-687 256 0
-688 252 0
-688 257 0
-689 252 0
-689 257 0
-690 253 0
-690 258 0
-691 253 0
-691 258 0
-692 254 0
-692 260 0
-693 254 0
-693 260 0
-20 686 687 688 689 690 691 692 693 0
-694 251 0
-694 255 0
-695 251 0
-695 255 0
-696 257 0
-696 265 0
-697 257 0
-697 265 0
-21 694 695 696 697 0
-22 0
-698 254 0
-698 255 0
-699 254 0
-699 255 0
-700 258 0
-700 270 0
-701 258 0
-701 270 0
-23 698 699 700 701 0
-702 263 0
-702 272 0
-703 263 0
-703 272 0
-704 264 0
-704 267 0
-705 264 0
-705 267 0
-24 702 703 704 705 0
-706 262 0
-706 272 0
-707 262 0
-707 272 0
-708 264 0
-708 268 0
-709 264 0
-709 268 0
-710 265 0
-710 267 0
-711 265 0
-711 267 0
-25 706 707 708 709 710 711 0
-712 251 0
-712 252 0
-713 251 0
-713 252 0
-714 256 0
-714 257 0
-715 256 0
-715 257 0
-716 263 0
-716 267 0
-717 263 0
-717 267 0
-718 264 0
-718 272 0
-719 264 0
-719 272 0
-26 712 713 714 715 716 717 718 719 0
-720 268 0
-720 271 0
-721 268 0
-721 271 0
-722 269 0
-722 270 0
-723 269 0
-723 270 0
-27 720 721 722 723 0
-724 262 0
-724 264 0
-725 262 0
-725 264 0
-726 263 0
-726 265 0
-727 263 0
-727 265 0
-728 268 0
-728 272 0
-729 268 0
-729 272 0
-28 724 725 726 727 728 729 0
-730 266 0
-730 270 0
-731 266 0
-731 270 0
-732 268 0
-732 273 0
-733 268 0
-733 273 0
-29 730 731 732 733 0
-734 266 0
-734 268 0
-735 266 0
-735 268 0
-736 270 0
-736 273 0
-737 270 0
-737 273 0
-30 734 735 736 737 0
-31 0
-738 276 0
-738 289 0
-739 276 0
-739 289 0
-740 279 0
-740 280 0
-741 279 0
-741 280 0
-32 738 739 740 741 0
-742 275 0
-742 289 0
-743 275 0
-743 289 0
-744 279 0
-744 281 0
-745 279 0
-745 281 0
-33 742 743 744 745 0
-746 277 0
-746 294 0
-747 277 0
-747 294 0
-748 279 0
-748 284 0
-749 279 0
-749 284 0
-34 746 747 748 749 0
-750 275 0
-750 280 0
-751 275 0
-751 280 0
-752 276 0
-752 281 0
-753 276 0
-753 281 0
-754 277 0
-754 282 0
-755 277 0
-755 282 0
-756 278 0
-756 284 0
-757 278 0
-757 284 0
-35 750 751 752 753 754 755 756 757 0
-758 275 0
-758 279 0
-759 275 0
-759 279 0
-760 281 0
-760 289 0
-761 281 0
-761 289 0
-36 758 759 760 761 0
-37 0
-762 278 0
-762 279 0
-763 278 0
-763 279 0
-764 282 0
-764 294 0
-765 282 0
-765 294 0
-38 762 763 764 765 0
-766 287 0
-766 296 0
-767 287 0
-767 296 0
-768 288 0
-768 291 0
-769 288 0
-769 291 0
-39 766 767 768 769 0
-770 286 0
-770 296 0
-771 286 0
-771 296 0
-772 288 0
-772 292 0
-773 288 0
-773 292 0
-774 289 0
-774 291 0
-775 289 0
-775 291 0
-40 770 771 772 773 774 775 0
-776 275 0
-776 276 0
-777 275 0
-777 276 0
-778 280 0
-778 281 0
-779 280 0
-779 281 0
-780 287 0
-780 291 0
-781 287 0
-781 291 0
-782 288 0
-782 296 0
-783 288 0
-783 296 0
-41 776 777 778 779 780 781 782 783 0
-784 292 0
-784 295 0
-785 292 0
-785 295 0
-786 293 0
-786 294 0
-787 293 0
-787 294 0
-42 784 785 786 787 0
-788 286 0
-788 288 0
-789 286 0
-789 288 0
-790 287 0
-790 289 0
-791 287 0
-791 289 0
-792 292 0
-792 296 0
-793 292 0
-793 296 0
-43 788 789 790 791 792 793 0
-794 290 0
-794 294 0
-795 290 0
-795 294 0
-796 292 0
-796 297 0
-797 292 0
-797 297 0
-44 794 795 796 797 0
-798 290 0
-798 292 0
-799 290 0
-799 292 0
-800 294 0
-800 297 0
-801 294 0
-801 297 0
-45 798 799 800 801 0
-46 0
-802 300 0
-802 313 0
-803 300 0
-803 313 0
-804 303 0
-804 304 0
-805 303 0
-805 304 0
-47 802 803 804 805 0
-806 299 0
-806 313 0
-807 299 0
-807 313 0
-808 303 0
-808 305 0
-809 303 0
-809 305 0
-48 806 807 808 809 0
-810 301 0
-810 318 0
-811 301 0
-811 318 0
-812 303 0
-812 308 0
-813 303 0
-813 308 0
-49 810 811 812 813 0
-814 299 0
-814 304 0
-815 299 0
-815 304 0
-816 300 0
-816 305 0
-817 300 0
-817 305 0
-818 301 0
-818 306 0
-819 301 0
-819 306 0
-820 302 0
-820 308 0
-821 302 0
-821 308 0
-50 814 815 816 817 818 819 820 821 0
-822 299 0
-822 303 0
-823 299 0
-823 303 0
-824 305 0
-824 313 0
-825 305 0
-825 313 0
-51 822 823 824 825 0
-52 0
-826 302 0
-826 303 0
-827 302 0
-827 303 0
-828 306 0
-828 318 0
-829 306 0
-829 318 0
-53 826 827 828 829 0
-830 311 0
-830 320 0
-831 311 0
-831 320 0
-832 312 0
-832 315 0
-833 312 0
-833 315 0
-54 830 831 832 833 0
-834 310 0
-834 320 0
-835 310 0
-835 320 0
-836 312 0
-836 316 0
-837 312 0
-837 316 0
-838 313 0
-838 315 0
-839 313 0
-839 315 0
-55 834 835 836 837 838 839 0
-840 299 0
-840 300 0
-841 299 0
-841 300 0
-842 304 0
-842 305 0
-843 304 0
-843 305 0
-844 311 0
-844 315 0
-845 311 0
-845 315 0
-846 312 0
-846 320 0
-847 312 0
-847 320 0
-56 840 841 842 843 844 845 846 847 0
-848 316 0
-848 319 0
-849 316 0
-849 319 0
-850 317 0
-850 318 0
-851 317 0
-851 318 0
-57 848 849 850 851 0
-852 310 0
-852 312 0
-853 310 0
-853 312 0
-854 311 0
-854 313 0
-855 311 0
-855 313 0
-856 316 0
-856 320 0
-857 316 0
-857 320 0
-58 852 853 854 855 856 857 0
-858 314 0
-858 318 0
-859 314 0
-859 318 0
-860 316 0
-860 321 0
-861 316 0
-861 321 0
-59 858 859 860 861 0
-862 314 0
-862 316 0
-863 314 0
-863 316 0
-864 318 0
-864 321 0
-865 318 0
-865 321 0
-60 862 863 864 865 0
-61 0
-866 324 0
-866 337 0
-867 324 0
-867 337 0
-868 327 0
-868 328 0
-869 327 0
-869 328 0
-62 866 867 868 869 0
-870 323 0
-870 337 0
-871 323 0
-871 337 0
-872 327 0
-872 329 0
-873 327 0
-873 329 0
-63 870 871 872 873 0
-874 325 0
-874 342 0
-875 325 0
-875 342 0
-876 327 0
-876 332 0
-877 327 0
-877 332 0
-64 874 875 876 877 0
-878 323 0
-878 328 0
-879 323 0
-879 328 0
-880 324 0
-880 329 0
-881 324 0
-881 329 0
-882 325 0
-882 330 0
-883 325 0
-883 330 0
-884 326 0
-884 332 0
-885 326 0
-885 332 0
-65 878 879 880 881 882 883 884 885 0
-886 323 0
-886 327 0
-887 323 0
-887 327 0
-888 329 0
-888 337 0
-889 329 0
-889 337 0
-66 886 887 888 889 0
-67 0
-890 326 0
-890 327 0
-891 326 0
-891 327 0
-892 330 0
-892 342 0
-893 330 0
-893 342 0
-68 890 891 892 893 0
-894 335 0
-894 344 0
-895 335 0
-895 344 0
-896 336 0
-896 339 0
-897 336 0
-897 339 0
-69 894 895 896 897 0
-898 334 0
-898 344 0
-899 334 0
-899 344 0
-900 336 0
-900 340 0
-901 336 0
-901 340 0
-902 337 0
-902 339 0
-903 337 0
-903 339 0
-70 898 899 900 901 902 903 0
-904 323 0
-904 324 0
-905 323 0
-905 324 0
-906 328 0
-906 329 0
-907 328 0
-907 329 0
-908 335 0
-908 339 0
-909 335 0
-909 339 0
-910 336 0
-910 344 0
-911 336 0
-911 344 0
-71 904 905 906 907 908 909 910 911 0
-912 340 0
-912 343 0
-913 340 0
-913 343 0
-914 341 0
-914 342 0
-915 341 0
-915 342 0
-72 912 913 914 915 0
-916 334 0
-916 336 0
-917 334 0
-917 336 0
-918 335 0
-918 337 0
-919 335 0
-919 337 0
-920 340 0
-920 344 0
-921 340 0
-921 344 0
-73 916 917 918 919 920 921 0
-922 338 0
-922 342 0
-923 338 0
-923 342 0
-924 340 0
-924 345 0
-925 340 0
-925 345 0
-74 922 923 924 925 0
-926 338 0
-926 340 0
-927 338 0
-927 340 0
-928 342 0
-928 345 0
-929 342 0
-929 345 0
-75 926 927 928 929 0
-76 0
-930 348 0
-930 361 0
-931 348 0
-931 361 0
-932 351 0
-932 352 0
-933 351 0
-933 352 0
-77 930 931 932 933 0
-934 347 0
-934 361 0
-935 347 0
-935 361 0
-936 351 0
-936 353 0
-937 351 0
-937 353 0
-78 934 935 936 937 0
-938 349 0
-938 366 0
-939 349 0
-939 366 0
-940 351 0
-940 356 0
-941 351 0
-941 356 0
-79 938 939 940 941 0
-942 347 0
-942 352 0
-943 347 0
-943 352 0
-944 348 0
-944 353 0
-945 348 0
-945 353 0
-946 349 0
-946 354 0
-947 349 0
-947 354 0
-948 350 0
-948 356 0
-949 350 0
-949 356 0
-80 942 943 944 945 946 947 948 949 0
-950 347 0
-950 351 0
-951 347 0
-951 351 0
-952 353 0
-952 361 0
-953 353 0
-953 361 0
-81 950 951 952 953 0
-82 0
-954 350 0
-954 351 0
-955 350 0
-955 351 0
-956 354 0
-956 366 0
-957 354 0
-957 366 0
-83 954 955 956 957 0
-958 359 0
-958 368 0
-959 359 0
-959 368 0
-960 360 0
-960 363 0
-961 360 0
-961 363 0
-84 958 959 960 961 0
-962 358 0
-962 368 0
-963 358 0
-963 368 0
-964 360 0
-964 364 0
-965 360 0
-965 364 0
-966 361 0
-966 363 0
-967 361 0
-967 363 0
-85 962 963 964 965 966 967 0
-968 347 0
-968 348 0
-969 347 0
-969 348 0
-970 352 0
-970 353 0
-971 352 0
-971 353 0
-972 359 0
-972 363 0
-973 359 0
-973 363 0
-974 360 0
-974 368 0
-975 360 0
-975 368 0
-86 968 969 970 971 972 973 974 975 0
-976 364 0
-976 367 0
-977 364 0
-977 367 0
-978 365 0
-978 366 0
-979 365 0
-979 366 0
-87 976 977 978 979 0
-980 358 0
-980 360 0
-981 358 0
-981 360 0
-982 359 0
-982 361 0
-983 359 0
-983 361 0
-984 364 0
-984 368 0
-985 364 0
-985 368 0
-88 980 981 982 983 984 985 0
-986 362 0
-986 366 0
-987 362 0
-987 366 0
-988 364 0
-988 369 0
-989 364 0
-989 369 0
-89 986 987 988 989 0
-990 362 0
-990 364 0
-991 362 0
-991 364 0
-992 366 0
-992 369 0
-993 366 0
-993 369 0
-90 990 991 992 993 0
-91 0
-994 372 0
-994 385 0
-995 372 0
-995 385 0
-996 375 0
-996 376 0
-997 375 0
-997 376 0
-92 994 995 996 997 0
-998 371 0
-998 385 0
-999 371 0
-999 385 0
-1000 375 0
-1000 377 0
-1001 375 0
-1001 377 0
-93 998 999 1000 1001 0
-1002 373 0
-1002 390 0
-1003 373 0
-1003 390 0
-1004 375 0
-1004 380 0
-1005 375 0
-1005 380 0
-94 1002 1003 1004 1005 0
-1006 371 0
-1006 376 0
-1007 371 0
-1007 376 0
-1008 372 0
-1008 377 0
-1009 372 0
-1009 377 0
-1010 373 0
-1010 378 0
-1011 373 0
-1011 378 0
-1012 374 0
-1012 380 0
-1013 374 0
-1013 380 0
-95 1006 1007 1008 1009 1010 1011 1012 1013 0
-1014 371 0
-1014 375 0
-1015 371 0
-1015 375 0
-1016 377 0
-1016 385 0
-1017 377 0
-1017 385 0
-96 1014 1015 1016 1017 0
-97 0
-1018 374 0
-1018 375 0
-1019 374 0
-1019 375 0
-1020 378 0
-1020 390 0
-1021 378 0
-1021 390 0
-98 1018 1019 1020 1021 0
-1022 383 0
-1022 392 0
-1023 383 0
-1023 392 0
-1024 384 0
-1024 387 0
-1025 384 0
-1025 387 0
-99 1022 1023 1024 1025 0
-1026 382 0
-1026 392 0
-1027 382 0
-1027 392 0
-1028 384 0
-1028 388 0
-1029 384 0
-1029 388 0
-1030 385 0
-1030 387 0
-1031 385 0
-1031 387 0
-100 1026 1027 1028 1029 1030 1031 0
-1032 371 0
-1032 372 0
-1033 371 0
-1033 372 0
-1034 376 0
-1034 377 0
-1035 376 0
-1035 377 0
-1036 383 0
-1036 387 0
-1037 383 0
-1037 387 0
-1038 384 0
-1038 392 0
-1039 384 0
-1039 392 0
-101 1032 1033 1034 1035 1036 1037 1038 1039 0
-1040 388 0
-1040 391 0
-1041 388 0
-1041 391 0
-1042 389 0
-1042 390 0
-1043 389 0
-1043 390 0
-102 1040 1041 1042 1043 0
-1044 382 0
-1044 384 0
-1045 382 0
-1045 384 0
-1046 383 0
-1046 385 0
-1047 383 0
-1047 385 0
-1048 388 0
-1048 392 0
-1049 388 0
-1049 392 0
-103 1044 1045 1046 1047 1048 1049 0
-1050 386 0
-1050 390 0
-1051 386 0
-1051 390 0
-1052 388 0
-1052 393 0
-1053 388 0
-1053 393 0
-104 1050 1051 1052 1053 0
-1054 386 0
-1054 388 0
-1055 386 0
-1055 388 0
-1056 390 0
-1056 393 0
-1057 390 0
-1057 393 0
-105 1054 1055 1056 1057 0
-106 0
-1058 396 0
-1058 409 0
-1059 396 0
-1059 409 0
-1060 399 0
-1060 400 0
-1061 399 0
-1061 400 0
-107 1058 1059 1060 1061 0
-1062 395 0
-1062 409 0
-1063 395 0
-1063 409 0
-1064 399 0
-1064 401 0
-1065 399 0
-1065 401 0
-108 1062 1063 1064 1065 0
-1066 397 0
-1066 414 0
-1067 397 0
-1067 414 0
-1068 399 0
-1068 404 0
-1069 399 0
-1069 404 0
-109 1066 1067 1068 1069 0
-1070 395 0
-1070 400 0
-1071 395 0
-1071 400 0
-1072 396 0
-1072 401 0
-1073 396 0
-1073 401 0
-1074 397 0
-1074 402 0
-1075 397 0
-1075 402 0
-1076 398 0
-1076 404 0
-1077 398 0
-1077 404 0
-110 1070 1071 1072 1073 1074 1075 1076 1077 0
-1078 395 0
-1078 399 0
-1079 395 0
-1079 399 0
-1080 401 0
-1080 409 0
-1081 401 0
-1081 409 0
-111 1078 1079 1080 1081 0
-112 0
-1082 398 0
-1082 399 0
-1083 398 0
-1083 399 0
-1084 402 0
-1084 414 0
-1085 402 0
-1085 414 0
-113 1082 1083 1084 1085 0
-1086 407 0
-1086 416 0
-1087 407 0
-1087 416 0
-1088 408 0
-1088 411 0
-1089 408 0
-1089 411 0
-114 1086 1087 1088 1089 0
-1090 406 0
-1090 416 0
-1091 406 0
-1091 416 0
-1092 408 0
-1092 412 0
-1093 408 0
-1093 412 0
-1094 409 0
-1094 411 0
-1095 409 0
-1095 411 0
-115 1090 1091 1092 1093 1094 1095 0
-1096 395 0
-1096 396 0
-1097 395 0
-1097 396 0
-1098 400 0
-1098 401 0
-1099 400 0
-1099 401 0
-1100 407 0
-1100 411 0
-1101 407 0
-1101 411 0
-1102 408 0
-1102 416 0
-1103 408 0
-1103 416 0
-116 1096 1097 1098 1099 1100 1101 1102 1103 0
-1104 412 0
-1104 415 0
-1105 412 0
-1105 415 0
-1106 413 0
-1106 414 0
-1107 413 0
-1107 414 0
-117 1104 1105 1106 1107 0
-1108 406 0
-1108 408 0
-1109 406 0
-1109 408 0
-1110 407 0
-1110 409 0
-1111 407 0
-1111 409 0
-1112 412 0
-1112 416 0
-1113 412 0
-1113 416 0
-118 1108 1109 1110 1111 1112 1113 0
-1114 410 0
-1114 414 0
-1115 410 0
-1115 414 0
-1116 412 0
-1116 417 0
-1117 412 0
-1117 417 0
-119 1114 1115 1116 1117 0
-1118 410 0
-1118 412 0
-1119 410 0
-1119 412 0
-1120 414 0
-1120 417 0
-1121 414 0
-1121 417 0
-120 1118 1119 1120 1121 0
-121 0
-1122 420 0
-1122 433 0
-1123 420 0
-1123 433 0
-1124 423 0
-1124 424 0
-1125 423 0
-1125 424 0
-122 1122 1123 1124 1125 0
-1126 419 0
-1126 433 0
-1127 419 0
-1127 433 0
-1128 423 0
-1128 425 0
-1129 423 0
-1129 425 0
-123 1126 1127 1128 1129 0
-1130 421 0
-1130 438 0
-1131 421 0
-1131 438 0
-1132 423 0
-1132 428 0
-1133 423 0
-1133 428 0
-124 1130 1131 1132 1133 0
-1134 419 0
-1134 424 0
-1135 419 0
-1135 424 0
-1136 420 0
-1136 425 0
-1137 420 0
-1137 425 0
-1138 421 0
-1138 426 0
-1139 421 0
-1139 426 0
-1140 422 0
-1140 428 0
-1141 422 0
-1141 428 0
-125 1134 1135 1136 1137 1138 1139 1140 1141 0
-1142 419 0
-1142 423 0
-1143 419 0
-1143 423 0
-1144 425 0
-1144 433 0
-1145 425 0
-1145 433 0
-126 1142 1143 1144 1145 0
-127 0
-1146 422 0
-1146 423 0
-1147 422 0
-1147 423 0
-1148 426 0
-1148 438 0
-1149 426 0
-1149 438 0
-128 1146 1147 1148 1149 0
-1150 431 0
-1150 440 0
-1151 431 0
-1151 440 0
-1152 432 0
-1152 435 0
-1153 432 0
-1153 435 0
-129 1150 1151 1152 1153 0
-1154 430 0
-1154 440 0
-1155 430 0
-1155 440 0
-1156 432 0
-1156 436 0
-1157 432 0
-1157 436 0
-1158 433 0
-1158 435 0
-1159 433 0
-1159 435 0
-130 1154 1155 1156 1157 1158 1159 0
-1160 419 0
-1160 420 0
-1161 419 0
-1161 420 0
-1162 424 0
-1162 425 0
-1163 424 0
-1163 425 0
-1164 431 0
-1164 435 0
-1165 431 0
-1165 435 0
-1166 432 0
-1166 440 0
-1167 432 0
-1167 440 0
-131 1160 1161 1162 1163 1164 1165 1166 1167 0
-1168 436 0
-1168 439 0
-1169 436 0
-1169 439 0
-1170 437 0
-1170 438 0
-1171 437 0
-1171 438 0
-132 1168 1169 1170 1171 0
-1172 430 0
-1172 432 0
-1173 430 0
-1173 432 0
-1174 431 0
-1174 433 0
-1175 431 0
-1175 433 0
-1176 436 0
-1176 440 0
-1177 436 0
-1177 440 0
-133 1172 1173 1174 1175 1176 1177 0
-1178 434 0
-1178 438 0
-1179 434 0
-1179 438 0
-1180 436 0
-1180 441 0
-1181 436 0
-1181 441 0
-134 1178 1179 1180 1181 0
-1182 434 0
-1182 436 0
-1183 434 0
-1183 436 0
-1184 438 0
-1184 441 0
-1185 438 0
-1185 441 0
-135 1182 1183 1184 1185 0
-136 0
-1186 444 0
-1186 457 0
-1187 444 0
-1187 457 0
-1188 447 0
-1188 448 0
-1189 447 0
-1189 448 0
-137 1186 1187 1188 1189 0
-1190 443 0
-1190 457 0
-1191 443 0
-1191 457 0
-1192 447 0
-1192 449 0
-1193 447 0
-1193 449 0
-138 1190 1191 1192 1193 0
-1194 445 0
-1194 462 0
-1195 445 0
-1195 462 0
-1196 447 0
-1196 452 0
-1197 447 0
-1197 452 0
-139 1194 1195 1196 1197 0
-1198 443 0
-1198 448 0
-1199 443 0
-1199 448 0
-1200 444 0
-1200 449 0
-1201 444 0
-1201 449 0
-1202 445 0
-1202 450 0
-1203 445 0
-1203 450 0
-1204 446 0
-1204 452 0
-1205 446 0
-1205 452 0
-140 1198 1199 1200 1201 1202 1203 1204 1205 0
-1206 443 0
-1206 447 0
-1207 443 0
-1207 447 0
-1208 449 0
-1208 457 0
-1209 449 0
-1209 457 0
-141 1206 1207 1208 1209 0
-142 0
-1210 446 0
-1210 447 0
-1211 446 0
-1211 447 0
-1212 450 0
-1212 462 0
-1213 450 0
-1213 462 0
-143 1210 1211 1212 1213 0
-1214 455 0
-1214 464 0
-1215 455 0
-1215 464 0
-1216 456 0
-1216 459 0
-1217 456 0
-1217 459 0
-144 1214 1215 1216 1217 0
-1218 454 0
-1218 464 0
-1219 454 0
-1219 464 0
-1220 456 0
-1220 460 0
-1221 456 0
-1221 460 0
-1222 457 0
-1222 459 0
-1223 457 0
-1223 459 0
-145 1218 1219 1220 1221 1222 1223 0
-1224 443 0
-1224 444 0
-1225 443 0
-1225 444 0
-1226 448 0
-1226 449 0
-1227 448 0
-1227 449 0
-1228 455 0
-1228 459 0
-1229 455 0
-1229 459 0
-1230 456 0
-1230 464 0
-1231 456 0
-1231 464 0
-146 1224 1225 1226 1227 1228 1229 1230 1231 0
-1232 460 0
-1232 463 0
-1233 460 0
-1233 463 0
-1234 461 0
-1234 462 0
-1235 461 0
-1235 462 0
-147 1232 1233 1234 1235 0
-1236 454 0
-1236 456 0
-1237 454 0
-1237 456 0
-1238 455 0
-1238 457 0
-1239 455 0
-1239 457 0
-1240 460 0
-1240 464 0
-1241 460 0
-1241 464 0
-148 1236 1237 1238 1239 1240 1241 0
-1242 458 0
-1242 462 0
-1243 458 0
-1243 462 0
-1244 460 0
-1244 465 0
-1245 460 0
-1245 465 0
-149 1242 1243 1244 1245 0
-1246 458 0
-1246 460 0
-1247 458 0
-1247 460 0
-1248 462 0
-1248 465 0
-1249 462 0
-1249 465 0
-150 1246 1247 1248 1249 0
-151 0
-1250 468 0
-1250 481 0
-1251 468 0
-1251 481 0
-1252 471 0
-1252 472 0
-1253 471 0
-1253 472 0
-152 1250 1251 1252 1253 0
-1254 467 0
-1254 481 0
-1255 467 0
-1255 481 0
-1256 471 0
-1256 473 0
-1257 471 0
-1257 473 0
-153 1254 1255 1256 1257 0
-1258 469 0
-1258 486 0
-1259 469 0
-1259 486 0
-1260 471 0
-1260 476 0
-1261 471 0
-1261 476 0
-154 1258 1259 1260 1261 0
-1262 467 0
-1262 472 0
-1263 467 0
-1263 472 0
-1264 468 0
-1264 473 0
-1265 468 0
-1265 473 0
-1266 469 0
-1266 474 0
-1267 469 0
-1267 474 0
-1268 470 0
-1268 476 0
-1269 470 0
-1269 476 0
-155 1262 1263 1264 1265 1266 1267 1268 1269 0
-1270 467 0
-1270 471 0
-1271 467 0
-1271 471 0
-1272 473 0
-1272 481 0
-1273 473 0
-1273 481 0
-156 1270 1271 1272 1273 0
-157 0
-1274 470 0
-1274 471 0
-1275 470 0
-1275 471 0
-1276 474 0
-1276 486 0
-1277 474 0
-1277 486 0
-158 1274 1275 1276 1277 0
-1278 479 0
-1278 488 0
-1279 479 0
-1279 488 0
-1280 480 0
-1280 483 0
-1281 480 0
-1281 483 0
-159 1278 1279 1280 1281 0
-1282 478 0
-1282 488 0
-1283 478 0
-1283 488 0
-1284 480 0
-1284 484 0
-1285 480 0
-1285 484 0
-1286 481 0
-1286 483 0
-1287 481 0
-1287 483 0
-160 1282 1283 1284 1285 1286 1287 0
-1288 467 0
-1288 468 0
-1289 467 0
-1289 468 0
-1290 472 0
-1290 473 0
-1291 472 0
-1291 473 0
-1292 479 0
-1292 483 0
-1293 479 0
-1293 483 0
-1294 480 0
-1294 488 0
-1295 480 0
-1295 488 0
-161 1288 1289 1290 1291 1292 1293 1294 1295 0
-1296 484 0
-1296 487 0
-1297 484 0
-1297 487 0
-1298 485 0
-1298 486 0
-1299 485 0
-1299 486 0
-162 1296 1297 1298 1299 0
-1300 478 0
-1300 480 0
-1301 478 0
-1301 480 0
-1302 479 0
-1302 481 0
-1303 479 0
-1303 481 0
-1304 484 0
-1304 488 0
-1305 484 0
-1305 488 0
-163 1300 1301 1302 1303 1304 1305 0
-1306 482 0
-1306 486 0
-1307 482 0
-1307 486 0
-1308 484 0
-1308 489 0
-1309 484 0
-1309 489 0
-164 1306 1307 1308 1309 0
-1310 482 0
-1310 484 0
-1311 482 0
-1311 484 0
-1312 486 0
-1312 489 0
-1313 486 0
-1313 489 0
-165 1310 1311 1312 1313 0
-166 0
-1314 492 0
-1314 505 0
-1315 492 0
-1315 505 0
-1316 495 0
-1316 496 0
-1317 495 0
-1317 496 0
-167 1314 1315 1316 1317 0
-1318 491 0
-1318 505 0
-1319 491 0
-1319 505 0
-1320 495 0
-1320 497 0
-1321 495 0
-1321 497 0
-168 1318 1319 1320 1321 0
-1322 493 0
-1322 510 0
-1323 493 0
-1323 510 0
-1324 495 0
-1324 500 0
-1325 495 0
-1325 500 0
-169 1322 1323 1324 1325 0
-1326 491 0
-1326 496 0
-1327 491 0
-1327 496 0
-1328 492 0
-1328 497 0
-1329 492 0
-1329 497 0
-1330 493 0
-1330 498 0
-1331 493 0
-1331 498 0
-1332 494 0
-1332 500 0
-1333 494 0
-1333 500 0
-170 1326 1327 1328 1329 1330 1331 1332 1333 0
-1334 491 0
-1334 495 0
-1335 491 0
-1335 495 0
-1336 497 0
-1336 505 0
-1337 497 0
-1337 505 0
-171 1334 1335 1336 1337 0
-172 0
-1338 494 0
-1338 495 0
-1339 494 0
-1339 495 0
-1340 498 0
-1340 510 0
-1341 498 0
-1341 510 0
-173 1338 1339 1340 1341 0
-1342 503 0
-1342 512 0
-1343 503 0
-1343 512 0
-1344 504 0
-1344 507 0
-1345 504 0
-1345 507 0
-174 1342 1343 1344 1345 0
-1346 502 0
-1346 512 0
-1347 502 0
-1347 512 0
-1348 504 0
-1348 508 0
-1349 504 0
-1349 508 0
-1350 505 0
-1350 507 0
-1351 505 0
-1351 507 0
-175 1346 1347 1348 1349 1350 1351 0
-1352 491 0
-1352 492 0
-1353 491 0
-1353 492 0
-1354 496 0
-1354 497 0
-1355 496 0
-1355 497 0
-1356 503 0
-1356 507 0
-1357 503 0
-1357 507 0
-1358 504 0
-1358 512 0
-1359 504 0
-1359 512 0
-176 1352 1353 1354 1355 1356 1357 1358 1359 0
-1360 508 0
-1360 511 0
-1361 508 0
-1361 511 0
-1362 509 0
-1362 510 0
-1363 509 0
-1363 510 0
-177 1360 1361 1362 1363 0
-1364 502 0
-1364 504 0
-1365 502 0
-1365 504 0
-1366 503 0
-1366 505 0
-1367 503 0
-1367 505 0
-1368 508 0
-1368 512 0
-1369 508 0
-1369 512 0
-178 1364 1365 1366 1367 1368 1369 0
-1370 506 0
-1370 510 0
-1371 506 0
-1371 510 0
-1372 508 0
-1372 513 0
-1373 508 0
-1373 513 0
-179 1370 1371 1372 1373 0
-1374 506 0
-1374 508 0
-1375 506 0
-1375 508 0
-1376 510 0
-1376 513 0
-1377 510 0
-1377 513 0
-180 1374 1375 1376 1377 0
-181 0
-1378 516 0
-1378 529 0
-1379 516 0
-1379 529 0
-1380 519 0
-1380 520 0
-1381 519 0
-1381 520 0
-182 1378 1379 1380 1381 0
-1382 515 0
-1382 529 0
-1383 515 0
-1383 529 0
-1384 519 0
-1384 521 0
-1385 519 0
-1385 521 0
-183 1382 1383 1384 1385 0
-1386 517 0
-1386 534 0
-1387 517 0
-1387 534 0
-1388 519 0
-1388 524 0
-1389 519 0
-1389 524 0
-184 1386 1387 1388 1389 0
-1390 515 0
-1390 520 0
-1391 515 0
-1391 520 0
-1392 516 0
-1392 521 0
-1393 516 0
-1393 521 0
-1394 517 0
-1394 522 0
-1395 517 0
-1395 522 0
-1396 518 0
-1396 524 0
-1397 518 0
-1397 524 0
-185 1390 1391 1392 1393 1394 1395 1396 1397 0
-1398 515 0
-1398 519 0
-1399 515 0
-1399 519 0
-1400 521 0
-1400 529 0
-1401 521 0
-1401 529 0
-186 1398 1399 1400 1401 0
-187 0
-1402 518 0
-1402 519 0
-1403 518 0
-1403 519 0
-1404 522 0
-1404 534 0
-1405 522 0
-1405 534 0
-188 1402 1403 1404 1405 0
-1406 527 0
-1406 536 0
-1407 527 0
-1407 536 0
-1408 528 0
-1408 531 0
-1409 528 0
-1409 531 0
-189 1406 1407 1408 1409 0
-1410 526 0
-1410 536 0
-1411 526 0
-1411 536 0
-1412 528 0
-1412 532 0
-1413 528 0
-1413 532 0
-1414 529 0
-1414 531 0
-1415 529 0
-1415 531 0
-190 1410 1411 1412 1413 1414 1415 0
-1416 515 0
-1416 516 0
-1417 515 0
-1417 516 0
-1418 520 0
-1418 521 0
-1419 520 0
-1419 521 0
-1420 527 0
-1420 531 0
-1421 527 0
-1421 531 0
-1422 528 0
-1422 536 0
-1423 528 0
-1423 536 0
-191 1416 1417 1418 1419 1420 1421 1422 1423 0
-1424 532 0
-1424 535 0
-1425 532 0
-1425 535 0
-1426 533 0
-1426 534 0
-1427 533 0
-1427 534 0
-192 1424 1425 1426 1427 0
-1428 526 0
-1428 528 0
-1429 526 0
-1429 528 0
-1430 527 0
-1430 529 0
-1431 527 0
-1431 529 0
-1432 532 0
-1432 536 0
-1433 532 0
-1433 536 0
-193 1428 1429 1430 1431 1432 1433 0
-1434 530 0
-1434 534 0
-1435 530 0
-1435 534 0
-1436 532 0
-1436 537 0
-1437 532 0
-1437 537 0
-194 1434 1435 1436 1437 0
-1438 530 0
-1438 532 0
-1439 530 0
-1439 532 0
-1440 534 0
-1440 537 0
-1441 534 0
-1441 537 0
-195 1438 1439 1440 1441 0
-196 0
-1442 540 0
-1442 553 0
-1443 540 0
-1443 553 0
-1444 543 0
-1444 544 0
-1445 543 0
-1445 544 0
-197 1442 1443 1444 1445 0
-1446 539 0
-1446 553 0
-1447 539 0
-1447 553 0
-1448 543 0
-1448 545 0
-1449 543 0
-1449 545 0
-198 1446 1447 1448 1449 0
-1450 541 0
-1450 558 0
-1451 541 0
-1451 558 0
-1452 543 0
-1452 548 0
-1453 543 0
-1453 548 0
-199 1450 1451 1452 1453 0
-1454 539 0
-1454 544 0
-1455 539 0
-1455 544 0
-1456 540 0
-1456 545 0
-1457 540 0
-1457 545 0
-1458 541 0
-1458 546 0
-1459 541 0
-1459 546 0
-1460 542 0
-1460 548 0
-1461 542 0
-1461 548 0
-200 1454 1455 1456 1457 1458 1459 1460 1461 0
-1462 539 0
-1462 543 0
-1463 539 0
-1463 543 0
-1464 545 0
-1464 553 0
-1465 545 0
-1465 553 0
-201 1462 1463 1464 1465 0
-202 0
-1466 542 0
-1466 543 0
-1467 542 0
-1467 543 0
-1468 546 0
-1468 558 0
-1469 546 0
-1469 558 0
-203 1466 1467 1468 1469 0
-1470 551 0
-1470 560 0
-1471 551 0
-1471 560 0
-1472 552 0
-1472 555 0
-1473 552 0
-1473 555 0
-204 1470 1471 1472 1473 0
-1474 550 0
-1474 560 0
-1475 550 0
-1475 560 0
-1476 552 0
-1476 556 0
-1477 552 0
-1477 556 0
-1478 553 0
-1478 555 0
-1479 553 0
-1479 555 0
-205 1474 1475 1476 1477 1478 1479 0
-1480 539 0
-1480 540 0
-1481 539 0
-1481 540 0
-1482 544 0
-1482 545 0
-1483 544 0
-1483 545 0
-1484 551 0
-1484 555 0
-1485 551 0
-1485 555 0
-1486 552 0
-1486 560 0
-1487 552 0
-1487 560 0
-206 1480 1481 1482 1483 1484 1485 1486 1487 0
-1488 556 0
-1488 559 0
-1489 556 0
-1489 559 0
-1490 557 0
-1490 558 0
-1491 557 0
-1491 558 0
-207 1488 1489 1490 1491 0
-1492 550 0
-1492 552 0
-1493 550 0
-1493 552 0
-1494 551 0
-1494 553 0
-1495 551 0
-1495 553 0
-1496 556 0
-1496 560 0
-1497 556 0
-1497 560 0
-208 1492 1493 1494 1495 1496 1497 0
-1498 554 0
-1498 558 0
-1499 554 0
-1499 558 0
-1500 556 0
-1500 561 0
-1501 556 0
-1501 561 0
-209 1498 1499 1500 1501 0
-1502 554 0
-1502 556 0
-1503 554 0
-1503 556 0
-1504 558 0
-1504 561 0
-1505 558 0
-1505 561 0
-210 1502 1503 1504 1505 0
-211 0
-1506 564 0
-1506 577 0
-1507 564 0
-1507 577 0
-1508 567 0
-1508 568 0
-1509 567 0
-1509 568 0
-212 1506 1507 1508 1509 0
-1510 563 0
-1510 577 0
-1511 563 0
-1511 577 0
-1512 567 0
-1512 569 0
-1513 567 0
-1513 569 0
-213 1510 1511 1512 1513 0
-1514 565 0
-1514 582 0
-1515 565 0
-1515 582 0
-1516 567 0
-1516 572 0
-1517 567 0
-1517 572 0
-214 1514 1515 1516 1517 0
-1518 563 0
-1518 568 0
-1519 563 0
-1519 568 0
-1520 564 0
-1520 569 0
-1521 564 0
-1521 569 0
-1522 565 0
-1522 570 0
-1523 565 0
-1523 570 0
-1524 566 0
-1524 572 0
-1525 566 0
-1525 572 0
-215 1518 1519 1520 1521 1522 1523 1524 1525 0
-1526 563 0
-1526 567 0
-1527 563 0
-1527 567 0
-1528 569 0
-1528 577 0
-1529 569 0
-1529 577 0
-216 1526 1527 1528 1529 0
-217 0
-1530 566 0
-1530 567 0
-1531 566 0
-1531 567 0
-1532 570 0
-1532 582 0
-1533 570 0
-1533 582 0
-218 1530 1531 1532 1533 0
-1534 575 0
-1534 584 0
-1535 575 0
-1535 584 0
-1536 576 0
-1536 579 0
-1537 576 0
-1537 579 0
-219 1534 1535 1536 1537 0
-1538 574 0
-1538 584 0
-1539 574 0
-1539 584 0
-1540 576 0
-1540 580 0
-1541 576 0
-1541 580 0
-1542 577 0
-1542 579 0
-1543 577 0
-1543 579 0
-220 1538 1539 1540 1541 1542 1543 0
-1544 563 0
-1544 564 0
-1545 563 0
-1545 564 0
-1546 568 0
-1546 569 0
-1547 568 0
-1547 569 0
-1548 575 0
-1548 579 0
-1549 575 0
-1549 579 0
-1550 576 0
-1550 584 0
-1551 576 0
-1551 584 0
-221 1544 1545 1546 1547 1548 1549 1550 1551 0
-1552 580 0
-1552 583 0
-1553 580 0
-1553 583 0
-1554 581 0
-1554 582 0
-1555 581 0
-1555 582 0
-222 1552 1553 1554 1555 0
-1556 574 0
-1556 576 0
-1557 574 0
-1557 576 0
-1558 575 0
-1558 577 0
-1559 575 0
-1559 577 0
-1560 580 0
-1560 584 0
-1561 580 0
-1561 584 0
-223 1556 1557 1558 1559 1560 1561 0
-1562 578 0
-1562 582 0
-1563 578 0
-1563 582 0
-1564 580 0
-1564 585 0
-1565 580 0
-1565 585 0
-224 1562 1563 1564 1565 0
-1566 578 0
-1566 580 0
-1567 578 0
-1567 580 0
-1568 582 0
-1568 585 0
-1569 582 0
-1569 585 0
-225 1566 1567 1568 1569 0
