p cnf 1629 4239
-1 -2 0
-1 -3 0
-1 -4 0
-1 -5 0
-1 -6 0
-1 -7 0
-1 -8 0
-1 -9 0
-1 -10 0
-1 -11 0
-1 -12 0
-1 -13 0
-1 -14 0
-1 -15 0
-2 -3 0
-2 -4 0
-2 -5 0
-2 -6 0
-2 -7 0
-2 -8 0
-2 -9 0
-2 -10 0
-2 -11 0
-2 -12 0
-2 -13 0
-2 -14 0
-2 -15 0
-3 -4 0
-3 -5 0
-3 -6 0
-3 -7 0
-3 -8 0
-3 -9 0
-3 -10 0
-3 -11 0
-3 -12 0
-3 -13 0
-3 -14 0
-3 -15 0
-4 -5 0
-4 -6 0
-4 -7 0
-4 -8 0
-4 -9 0
-4 -10 0
-4 -11 0
-4 -12 0
-4 -13 0
-4 -14 0
-4 -15 0
-5 -6 0
-5 -7 0
-5 -8 0
-5 -9 0
-5 -10 0
-5 -11 0
-5 -12 0
-5 -13 0
-5 -14 0
-5 -15 0
-6 -7 0
-6 -8 0
-6 -9 0
-6 -10 0
-6 -11 0
-6 -12 0
-6 -13 0
-6 -14 0
-6 -15 0
-7 -8 0
-7 -9 0
-7 -10 0
-7 -11 0
-7 -12 0
-7 -13 0
-7 -14 0
-7 -15 0
-8 -9 0
-8 -10 0
-8 -11 0
-8 -12 0
-8 -13 0
-8 -14 0
-8 -15 0
-9 -10 0
-9 -11 0
-9 -12 0
-9 -13 0
-9 -14 0
-9 -15 0
-10 -11 0
-10 -12 0
-10 -13 0
-10 -14 0
-10 -15 0
-11 -12 0
-11 -13 0
-11 -14 0
-11 -15 0
-12 -13 0
-12 -14 0
-12 -15 0
-13 -14 0
-13 -15 0
-14 -15 0
-250 226 1 0
-251 227 2 0
-252 228 3 0
-253 229 0
-254 230 4 0
-255 231 5 0
-256 232 6 0
-257 233 7 0
-258 234 0
-259 235 0
-260 236 8 0
-261 237 9 0
-262 238 0
-263 239 10 0
-264 240 0
-265 241 11 0
-266 242 12 0
-267 243 13 0
-268 244 0
-269 245 14 0
-270 246 0
-271 247 15 0
-272 248 0
-273 249 0
-16 -17 0
-16 -18 0
-16 -19 0
-16 -20 0
-16 -21 0
-16 -22 0
-16 -23 0
-16 -24 0
-16 -25 0
-16 -26 0
-16 -27 0
-16 -28 0
-16 -29 0
-16 -30 0
-17 -18 0
-17 -19 0
-17 -20 0
-17 -21 0
-17 -22 0
-17 -23 0
-17 -24 0
-17 -25 0
-17 -26 0
-17 -27 0
-17 -28 0
-17 -29 0
-17 -30 0
-18 -19 0
-18 -20 0
-18 -21 0
-18 -22 0
-18 -23 0
-18 -24 0
-18 -25 0
-18 -26 0
-18 -27 0
-18 -28 0
-18 -29 0
-18 -30 0
-19 -20 0
-19 -21 0
-19 -22 0
-19 -23 0
-19 -24 0
-19 -25 0
-19 -26 0
-19 -27 0
-19 -28 0
-19 -29 0
-19 -30 0
-20 -21 0
-20 -22 0
-20 -23 0
-20 -24 0
-20 -25 0
-20 -26 0
-20 -27 0
-20 -28 0
-20 -29 0
-20 -30 0
-21 -22 0
-21 -23 0
-21 -24 0
-21 -25 0
-21 -26 0
-21 -27 0
-21 -28 0
-21 -29 0
-21 -30 0
-22 -23 0
-22 -24 0
-22 -25 0
-22 -26 0
-22 -27 0
-22 -28 0
-22 -29 0
-22 -30 0
-23 -24 0
-23 -25 0
-23 -26 0
-23 -27 0
-23 -28 0
-23 -29 0
-23 -30 0
-24 -25 0
-24 -26 0
-24 -27 0
-24 -28 0
-24 -29 0
-24 -30 0
-25 -26 0
-25 -27 0
-25 -28 0
-25 -29 0
-25 -30 0
-26 -27 0
-26 -28 0
-26 -29 0
-26 -30 0
-27 -28 0
-27 -29 0
-27 -30 0
-28 -29 0
-28 -30 0
-29 -30 0
-274 250 16 0
-275 251 17 0
-276 252 18 0
-277 253 0
-278 254 19 0
-279 255 20 0
-280 256 21 0
-281 257 22 0
-282 258 0
-283 259 0
-284 260 23 0
-285 261 24 0
-286 262 0
-287 263 25 0
-288 264 0
-289 265 26 0
-290 266 27 0
-291 267 28 0
-292 268 0
-293 269 29 0
-294 270 0
-295 271 30 0
-296 272 0
-297 273 0
-31 -32 0
-31 -33 0
-31 -34 0
-31 -35 0
-31 -36 0
-31 -37 0
-31 -38 0
-31 -39 0
-31 -40 0
-31 -41 0
-31 -42 0
-31 -43 0
-31 -44 0
-31 -45 0
-32 -33 0
-32 -34 0
-32 -35 0
-32 -36 0
-32 -37 0
-32 -38 0
-32 -39 0
-32 -40 0
-32 -41 0
-32 -42 0
-32 -43 0
-32 -44 0
-32 -45 0
-33 -34 0
-33 -35 0
-33 -36 0
-33 -37 0
-33 -38 0
-33 -39 0
-33 -40 0
-33 -41 0
-33 -42 0
-33 -43 0
-33 -44 0
-33 -45 0
-34 -35 0
-34 -36 0
-34 -37 0
-34 -38 0
-34 -39 0
-34 -40 0
-34 -41 0
-34 -42 0
-34 -43 0
-34 -44 0
-34 -45 0
-35 -36 0
-35 -37 0
-35 -38 0
-35 -39 0
-35 -40 0
-35 -41 0
-35 -42 0
-35 -43 0
-35 -44 0
-35 -45 0
-36 -37 0
-36 -38 0
-36 -39 0
-36 -40 0
-36 -41 0
-36 -42 0
-36 -43 0
-36 -44 0
-36 -45 0
-37 -38 0
-37 -39 0
-37 -40 0
-37 -41 0
-37 -42 0
-37 -43 0
-37 -44 0
-37 -45 0
-38 -39 0
-38 -40 0
-38 -41 0
-38 -42 0
-38 -43 0
-38 -44 0
-38 -45 0
-39 -40 0
-39 -41 0
-39 -42 0
-39 -43 0
-39 -44 0
-39 -45 0
-40 -41 0
-40 -42 0
-40 -43 0
-40 -44 0
-40 -45 0
-41 -42 0
-41 -43 0
-41 -44 0
-41 -45 0
-42 -43 0
-42 -44 0
-42 -45 0
-43 -44 0
-43 -45 0
-44 -45 0
-298 274 31 0
-299 275 32 0
-300 276 33 0
-301 277 0
-302 278 34 0
-303 279 35 0
-304 280 36 0
-305 281 37 0
-306 282 0
-307 283 0
-308 284 38 0
-309 285 39 0
-310 286 0
-311 287 40 0
-312 288 0
-313 289 41 0
-314 290 42 0
-315 291 43 0
-316 292 0
-317 293 44 0
-318 294 0
-319 295 45 0
-320 296 0
-321 297 0
-46 -47 0
-46 -48 0
-46 -49 0
-46 -50 0
-46 -51 0
-46 -52 0
-46 -53 0
-46 -54 0
-46 -55 0
-46 -56 0
-46 -57 0
-46 -58 0
-46 -59 0
-46 -60 0
-47 -48 0
-47 -49 0
-47 -50 0
-47 -51 0
-47 -52 0
-47 -53 0
-47 -54 0
-47 -55 0
-47 -56 0
-47 -57 0
-47 -58 0
-47 -59 0
-47 -60 0
-48 -49 0
-48 -50 0
-48 -51 0
-48 -52 0
-48 -53 0
-48 -54 0
-48 -55 0
-48 -56 0
-48 -57 0
-48 -58 0
-48 -59 0
-48 -60 0
-49 -50 0
-49 -51 0
-49 -52 0
-49 -53 0
-49 -54 0
-49 -55 0
-49 -56 0
-49 -57 0
-49 -58 0
-49 -59 0
-49 -60 0
-50 -51 0
-50 -52 0
-50 -53 0
-50 -54 0
-50 -55 0
-50 -56 0
-50 -57 0
-50 -58 0
-50 -59 0
-50 -60 0
-51 -52 0
-51 -53 0
-51 -54 0
-51 -55 0
-51 -56 0
-51 -57 0
-51 -58 0
-51 -59 0
-51 -60 0
-52 -53 0
-52 -54 0
-52 -55 0
-52 -56 0
-52 -57 0
-52 -58 0
-52 -59 0
-52 -60 0
-53 -54 0
-53 -55 0
-53 -56 0
-53 -57 0
-53 -58 0
-53 -59 0
-53 -60 0
-54 -55 0
-54 -56 0
-54 -57 0
-54 -58 0
-54 -59 0
-54 -60 0
-55 -56 0
-55 -57 0
-55 -58 0
-55 -59 0
-55 -60 0
-56 -57 0
-56 -58 0
-56 -59 0
-56 -60 0
-57 -58 0
-57 -59 0
-57 -60 0
-58 -59 0
-58 -60 0
-59 -60 0
-322 298 46 0
-323 299 47 0
-324 300 48 0
-325 301 0
-326 302 49 0
-327 303 50 0
-328 304 51 0
-329 305 52 0
-330 306 0
-331 307 0
-332 308 53 0
-333 309 54 0
-334 310 0
-335 311 55 0
-336 312 0
-337 313 56 0
-338 314 57 0
-339 315 58 0
-340 316 0
-341 317 59 0
-342 318 0
-343 319 60 0
-344 320 0
-345 321 0
-61 -62 0
-61 -63 0
-61 -64 0
-61 -65 0
-61 -66 0
-61 -67 0
-61 -68 0
-61 -69 0
-61 -70 0
-61 -71 0
-61 -72 0
-61 -73 0
-61 -74 0
-61 -75 0
-62 -63 0
-62 -64 0
-62 -65 0
-62 -66 0
-62 -67 0
-62 -68 0
-62 -69 0
-62 -70 0
-62 -71 0
-62 -72 0
-62 -73 0
-62 -74 0
-62 -75 0
-63 -64 0
-63 -65 0
-63 -66 0
-63 -67 0
-63 -68 0
-63 -69 0
-63 -70 0
-63 -71 0
-63 -72 0
-63 -73 0
-63 -74 0
-63 -75 0
-64 -65 0
-64 -66 0
-64 -67 0
-64 -68 0
-64 -69 0
-64 -70 0
-64 -71 0
-64 -72 0
-64 -73 0
-64 -74 0
-64 -75 0
-65 -66 0
-65 -67 0
-65 -68 0
-65 -69 0
-65 -70 0
-65 -71 0
-65 -72 0
-65 -73 0
-65 -74 0
-65 -75 0
-66 -67 0
-66 -68 0
-66 -69 0
-66 -70 0
-66 -71 0
-66 -72 0
-66 -73 0
-66 -74 0
-66 -75 0
-67 -68 0
-67 -69 0
-67 -70 0
-67 -71 0
-67 -72 0
-67 -73 0
-67 -74 0
-67 -75 0
-68 -69 0
-68 -70 0
-68 -71 0
-68 -72 0
-68 -73 0
-68 -74 0
-68 -75 0
-69 -70 0
-69 -71 0
-69 -72 0
-69 -73 0
-69 -74 0
-69 -75 0
-70 -71 0
-70 -72 0
-70 -73 0
-70 -74 0
-70 -75 0
-71 -72 0
-71 -73 0
-71 -74 0
-71 -75 0
-72 -73 0
-72 -74 0
-72 -75 0
-73 -74 0
-73 -75 0
-74 -75 0
-346 322 61 0
-347 323 62 0
-348 324 63 0
-349 325 0
-350 326 64 0
-351 327 65 0
-352 328 66 0
-353 329 67 0
-354 330 0
-355 331 0
-356 332 68 0
-357 333 69 0
-358 334 0
-359 335 70 0
-360 336 0
-361 337 71 0
-362 338 72 0
-363 339 73 0
-364 340 0
-365 341 74 0
-366 342 0
-367 343 75 0
-368 344 0
-369 345 0
-76 -77 0
-76 -78 0
-76 -79 0
-76 -80 0
-76 -81 0
-76 -82 0
-76 -83 0
-76 -84 0
-76 -85 0
-76 -86 0
-76 -87 0
-76 -88 0
-76 -89 0
-76 -90 0
-77 -78 0
-77 -79 0
-77 -80 0
-77 -81 0
-77 -82 0
-77 -83 0
-77 -84 0
-77 -85 0
-77 -86 0
-77 -87 0
-77 -88 0
-77 -89 0
-77 -90 0
-78 -79 0
-78 -80 0
-78 -81 0
-78 -82 0
-78 -83 0
-78 -84 0
-78 -85 0
-78 -86 0
-78 -87 0
-78 -88 0
-78 -89 0
-78 -90 0
-79 -80 0
-79 -81 0
-79 -82 0
-79 -83 0
-79 -84 0
-79 -85 0
-79 -86 0
-79 -87 0
-79 -88 0
-79 -89 0
-79 -90 0
-80 -81 0
-80 -82 0
-80 -83 0
-80 -84 0
-80 -85 0
-80 -86 0
-80 -87 0
-80 -88 0
-80 -89 0
-80 -90 0
-81 -82 0
-81 -83 0
-81 -84 0
-81 -85 0
-81 -86 0
-81 -87 0
-81 -88 0
-81 -89 0
-81 -90 0
-82 -83 0
-82 -84 0
-82 -85 0
-82 -86 0
-82 -87 0
-82 -88 0
-82 -89 0
-82 -90 0
-83 -84 0
-83 -85 0
-83 -86 0
-83 -87 0
-83 -88 0
-83 -89 0
-83 -90 0
-84 -85 0
-84 -86 0
-84 -87 0
-84 -88 0
-84 -89 0
-84 -90 0
-85 -86 0
-85 -87 0
-85 -88 0
-85 -89 0
-85 -90 0
-86 -87 0
-86 -88 0
-86 -89 0
-86 -90 0
-87 -88 0
-87 -89 0
-87 -90 0
-88 -89 0
-88 -90 0
-89 -90 0
-370 346 76 0
-371 347 77 0
-372 348 78 0
-373 349 0
-374 350 79 0
-375 351 80 0
-376 352 81 0
-377 353 82 0
-378 354 0
-379 355 0
-380 356 83 0
-381 357 84 0
-382 358 0
-383 359 85 0
-384 360 0
-385 361 86 0
-386 362 87 0
-387 363 88 0
-388 364 0
-389 365 89 0
-390 366 0
-391 367 90 0
-392 368 0
-393 369 0
-91 -92 0
-91 -93 0
-91 -94 0
-91 -95 0
-91 -96 0
-91 -97 0
-91 -98 0
-91 -99 0
-91 -100 0
-91 -101 0
-91 -102 0
-91 -103 0
-91 -104 0
-91 -105 0
-92 -93 0
-92 -94 0
-92 -95 0
-92 -96 0
-92 -97 0
-92 -98 0
-92 -99 0
-92 -100 0
-92 -101 0
-92 -102 0
-92 -103 0
-92 -104 0
-92 -105 0
-93 -94 0
-93 -95 0
-93 -96 0
-93 -97 0
-93 -98 0
-93 -99 0
-93 -100 0
-93 -101 0
-93 -102 0
-93 -103 0
-93 -104 0
-93 -105 0
-94 -95 0
-94 -96 0
-94 -97 0
-94 -98 0
-94 -99 0
-94 -100 0
-94 -101 0
-94 -102 0
-94 -103 0
-94 -104 0
-94 -105 0
-95 -96 0
-95 -97 0
-95 -98 0
-95 -99 0
-95 -100 0
-95 -101 0
-95 -102 0
-95 -103 0
-95 -104 0
-95 -105 0
-96 -97 0
-96 -98 0
-96 -99 0
-96 -100 0
-96 -101 0
-96 -102 0
-96 -103 0
-96 -104 0
-96 -105 0
-97 -98 0
-97 -99 0
-97 -100 0
-97 -101 0
-97 -102 0
-97 -103 0
-97 -104 0
-97 -105 0
-98 -99 0
-98 -100 0
-98 -101 0
-98 -102 0
-98 -103 0
-98 -104 0
-98 -105 0
-99 -100 0
-99 -101 0
-99 -102 0
-99 -103 0
-99 -104 0
-99 -105 0
-100 -101 0
-100 -102 0
-100 -103 0
-100 -104 0
-100 -105 0
-101 -102 0
-101 -103 0
-101 -104 0
-101 -105 0
-102 -103 0
-102 -104 0
-102 -105 0
-103 -104 0
-103 -105 0
-104 -105 0
-394 370 91 0
-395 371 92 0
-396 372 93 0
-397 373 0
-398 374 94 0
-399 375 95 0
-400 376 96 0
-401 377 97 0
-402 378 0
-403 379 0
-404 380 98 0
-405 381 99 0
-406 382 0
-407 383 100 0
-408 384 0
-409 385 101 0
-410 386 102 0
-411 387 103 0
-412 388 0
-413 389 104 0
-414 390 0
-415 391 105 0
-416 392 0
-417 393 0
-106 -107 0
-106 -108 0
-106 -109 0
-106 -110 0
-106 -111 0
-106 -112 0
-106 -113 0
-106 -114 0
-106 -115 0
-106 -116 0
-106 -117 0
-106 -118 0
-106 -119 0
-106 -120 0
-107 -108 0
-107 -109 0
-107 -110 0
-107 -111 0
-107 -112 0
-107 -113 0
-107 -114 0
-107 -115 0
-107 -116 0
-107 -117 0
-107 -118 0
-107 -119 0
-107 -120 0
-108 -109 0
-108 -110 0
-108 -111 0
-108 -112 0
-108 -113 0
-108 -114 0
-108 -115 0
-108 -116 0
-108 -117 0
-108 -118 0
-108 -119 0
-108 -120 0
-109 -110 0
-109 -111 0
-109 -112 0
-109 -113 0
-109 -114 0
-109 -115 0
-109 -116 0
-109 -117 0
-109 -118 0
-109 -119 0
-109 -120 0
-110 -111 0
-110 -112 0
-110 -113 0
-110 -114 0
-110 -115 0
-110 -116 0
-110 -117 0
-110 -118 0
-110 -119 0
-110 -120 0
-111 -112 0
-111 -113 0
-111 -114 0
-111 -115 0
-111 -116 0
-111 -117 0
-111 -118 0
-111 -119 0
-111 -120 0
-112 -113 0
-112 -114 0
-112 -115 0
-112 -116 0
-112 -117 0
-112 -118 0
-112 -119 0
-112 -120 0
-113 -114 0
-113 -115 0
-113 -116 0
-113 -117 0
-113 -118 0
-113 -119 0
-113 -120 0
-114 -115 0
-114 -116 0
-114 -117 0
-114 -118 0
-114 -119 0
-114 -120 0
-115 -116 0
-115 -117 0
-115 -118 0
-115 -119 0
-115 -120 0
-116 -117 0
-116 -118 0
-116 -119 0
-116 -120 0
-117 -118 0
-117 -119 0
-117 -120 0
-118 -119 0
-118 -120 0
-119 -120 0
-418 394 106 0
-419 395 107 0
-420 396 108 0
-421 397 0
-422 398 109 0
-423 399 110 0
-424 400 111 0
-425 401 112 0
-426 402 0
-427 403 0
-428 404 113 0
-429 405 114 0
-430 406 0
-431 407 115 0
-432 408 0
-433 409 116 0
-434 410 117 0
-435 411 118 0
-436 412 0
-437 413 119 0
-438 414 0
-439 415 120 0
-440 416 0
-441 417 0
-121 -122 0
-121 -123 0
-121 -124 0
-121 -125 0
-121 -126 0
-121 -127 0
-121 -128 0
-121 -129 0
-121 -130 0
-121 -131 0
-121 -132 0
-121 -133 0
-121 -134 0
-121 -135 0
-122 -123 0
-122 -124 0
-122 -125 0
-122 -126 0
-122 -127 0
-122 -128 0
-122 -129 0
-122 -130 0
-122 -131 0
-122 -132 0
-122 -133 0
-122 -134 0
-122 -135 0
-123 -124 0
-123 -125 0
-123 -126 0
-123 -127 0
-123 -128 0
-123 -129 0
-123 -130 0
-123 -131 0
-123 -132 0
-123 -133 0
-123 -134 0
-123 -135 0
-124 -125 0
-124 -126 0
-124 -127 0
-124 -128 0
-124 -129 0
-124 -130 0
-124 -131 0
-124 -132 0
-124 -133 0
-124 -134 0
-124 -135 0
-125 -126 0
-125 -127 0
-125 -128 0
-125 -129 0
-125 -130 0
-125 -131 0
-125 -132 0
-125 -133 0
-125 -134 0
-125 -135 0
-126 -127 0
-126 -128 0
-126 -129 0
-126 -130 0
-126 -131 0
-126 -132 0
-126 -133 0
-126 -134 0
-126 -135 0
-127 -128 0
-127 -129 0
-127 -130 0
-127 -131 0
-127 -132 0
-127 -133 0
-127 -134 0
-127 -135 0
-128 -129 0
-128 -130 0
-128 -131 0
-128 -132 0
-128 -133 0
-128 -134 0
-128 -135 0
-129 -130 0
-129 -131 0
-129 -132 0
-129 -133 0
-129 -134 0
-129 -135 0
-130 -131 0
-130 -132 0
-130 -133 0
-130 -134 0
-130 -135 0
-131 -132 0
-131 -133 0
-131 -134 0
-131 -135 0
-132 -133 0
-132 -134 0
-132 -135 0
-133 -134 0
-133 -135 0
-134 -135 0
-442 418 121 0
-443 419 122 0
-444 420 123 0
-445 421 0
-446 422 124 0
-447 423 125 0
-448 424 126 0
-449 425 127 0
-450 426 0
-451 427 0
-452 428 128 0
-453 429 129 0
-454 430 0
-455 431 130 0
-456 432 0
-457 433 131 0
-458 434 132 0
-459 435 133 0
-460 436 0
-461 437 134 0
-462 438 0
-463 439 135 0
-464 440 0
-465 441 0
-136 -137 0
-136 -138 0
-136 -139 0
-136 -140 0
-136 -141 0
-136 -142 0
-136 -143 0
-136 -144 0
-136 -145 0
-136 -146 0
-136 -147 0
-136 -148 0
-136 -149 0
-136 -150 0
-137 -138 0
-137 -139 0
-137 -140 0
-137 -141 0
-137 -142 0
-137 -143 0
-137 -144 0
-137 -145 0
-137 -146 0
-137 -147 0
-137 -148 0
-137 -149 0
-137 -150 0
-138 -139 0
-138 -140 0
-138 -141 0
-138 -142 0
-138 -143 0
-138 -144 0
-138 -145 0
-138 -146 0
-138 -147 0
-138 -148 0
-138 -149 0
-138 -150 0
-139 -140 0
-139 -141 0
-139 -142 0
-139 -143 0
-139 -144 0
-139 -145 0
-139 -146 0
-139 -147 0
-139 -148 0
-139 -149 0
-139 -150 0
-140 -141 0
-140 -142 0
-140 -143 0
-140 -144 0
-140 -145 0
-140 -146 0
-140 -147 0
-140 -148 0
-140 -149 0
-140 -150 0
-141 -142 0
-141 -143 0
-141 -144 0
-141 -145 0
-141 -146 0
-141 -147 0
-141 -148 0
-141 -149 0
-141 -150 0
-142 -143 0
-142 -144 0
-142 -145 0
-142 -146 0
-142 -147 0
-142 -148 0
-142 -149 0
-142 -150 0
-143 -144 0
-143 -145 0
-143 -146 0
-143 -147 0
-143 -148 0
-143 -149 0
-143 -150 0
-144 -145 0
-144 -146 0
-144 -147 0
-144 -148 0
-144 -149 0
-144 -150 0
-145 -146 0
-145 -147 0
-145 -148 0
-145 -149 0
-145 -150 0
-146 -147 0
-146 -148 0
-146 -149 0
-146 -150 0
-147 -148 0
-147 -149 0
-147 -150 0
-148 -149 0
-148 -150 0
-149 -150 0
-466 442 136 0
-467 443 137 0
-468 444 138 0
-469 445 0
-470 446 139 0
-471 447 140 0
-472 448 141 0
-473 449 142 0
-474 450 0
-475 451 0
-476 452 143 0
-477 453 144 0
-478 454 0
-479 455 145 0
-480 456 0
-481 457 146 0
-482 458 147 0
-483 459 148 0
-484 460 0
-485 461 149 0
-486 462 0
-487 463 150 0
-488 464 0
-489 465 0
-151 -152 0
-151 -153 0
-151 -154 0
-151 -155 0
-151 -156 0
-151 -157 0
-151 -158 0
-151 -159 0
-151 -160 0
-151 -161 0
-151 -162 0
-151 -163 0
-151 -164 0
-151 -165 0
-152 -153 0
-152 -154 0
-152 -155 0
-152 -156 0
-152 -157 0
-152 -158 0
-152 -159 0
-152 -160 0
-152 -161 0
-152 -162 0
-152 -163 0
-152 -164 0
-152 -165 0
-153 -154 0
-153 -155 0
-153 -156 0
-153 -157 0
-153 -158 0
-153 -159 0
-153 -160 0
-153 -161 0
-153 -162 0
-153 -163 0
-153 -164 0
-153 -165 0
-154 -155 0
-154 -156 0
-154 -157 0
-154 -158 0
-154 -159 0
-154 -160 0
-154 -161 0
-154 -162 0
-154 -163 0
-154 -164 0
-154 -165 0
-155 -156 0
-155 -157 0
-155 -158 0
-155 -159 0
-155 -160 0
-155 -161 0
-155 -162 0
-155 -163 0
-155 -164 0
-155 -165 0
-156 -157 0
-156 -158 0
-156 -159 0
-156 -160 0
-156 -161 0
-156 -162 0
-156 -163 0
-156 -164 0
-156 -165 0
-157 -158 0
-157 -159 0
-157 -160 0
-157 -161 0
-157 -162 0
-157 -163 0
-157 -164 0
-157 -165 0
-158 -159 0
-158 -160 0
-158 -161 0
-158 -162 0
-158 -163 0
-158 -164 0
-158 -165 0
-159 -160 0
-159 -161 0
-159 -162 0
-159 -163 0
-159 -164 0
-159 -165 0
-160 -161 0
-160 -162 0
-160 -163 0
-160 -164 0
-160 -165 0
-161 -162 0
-161 -163 0
-161 -164 0
-161 -165 0
-162 -163 0
-162 -164 0
-162 -165 0
-163 -164 0
-163 -165 0
-164 -165 0
-490 466 151 0
-491 467 152 0
-492 468 153 0
-493 469 0
-494 470 154 0
-495 471 155 0
-496 472 156 0
-497 473 157 0
-498 474 0
-499 475 0
-500 476 158 0
-501 477 159 0
-502 478 0
-503 479 160 0
-504 480 0
-505 481 161 0
-506 482 162 0
-507 483 163 0
-508 484 0
-509 485 164 0
-510 486 0
-511 487 165 0
-512 488 0
-513 489 0
-166 -167 0
-166 -168 0
-166 -169 0
-166 -170 0
-166 -171 0
-166 -172 0
-166 -173 0
-166 -174 0
-166 -175 0
-166 -176 0
-166 -177 0
-166 -178 0
-166 -179 0
-166 -180 0
-167 -168 0
-167 -169 0
-167 -170 0
-167 -171 0
-167 -172 0
-167 -173 0
-167 -174 0
-167 -175 0
-167 -176 0
-167 -177 0
-167 -178 0
-167 -179 0
-167 -180 0
-168 -169 0
-168 -170 0
-168 -171 0
-168 -172 0
-168 -173 0
-168 -174 0
-168 -175 0
-168 -176 0
-168 -177 0
-168 -178 0
-168 -179 0
-168 -180 0
-169 -170 0
-169 -171 0
-169 -172 0
-169 -173 0
-169 -174 0
-169 -175 0
-169 -176 0
-169 -177 0
-169 -178 0
-169 -179 0
-169 -180 0
-170 -171 0
-170 -172 0
-170 -173 0
-170 -174 0
-170 -175 0
-170 -176 0
-170 -177 0
-170 -178 0
-170 -179 0
-170 -180 0
-171 -172 0
-171 -173 0
-171 -174 0
-171 -175 0
-171 -176 0
-171 -177 0
-171 -178 0
-171 -179 0
-171 -180 0
-172 -173 0
-172 -174 0
-172 -175 0
-172 -176 0
-172 -177 0
-172 -178 0
-172 -179 0
-172 -180 0
-173 -174 0
-173 -175 0
-173 -176 0
-173 -177 0
-173 -178 0
-173 -179 0
-173 -180 0
-174 -175 0
-174 -176 0
-174 -177 0
-174 -178 0
-174 -179 0
-174 -180 0
-175 -176 0
-175 -177 0
-175 -178 0
-175 -179 0
-175 -180 0
-176 -177 0
-176 -178 0
-176 -179 0
-176 -180 0
-177 -178 0
-177 -179 0
-177 -180 0
-178 -179 0
-178 -180 0
-179 -180 0
-514 490 166 0
-515 491 167 0
-516 492 168 0
-517 493 0
-518 494 169 0
-519 495 170 0
-520 496 171 0
-521 497 172 0
-522 498 0
-523 499 0
-524 500 173 0
-525 501 174 0
-526 502 0
-527 503 175 0
-528 504 0
-529 505 176 0
-530 506 177 0
-531 507 178 0
-532 508 0
-533 509 179 0
-534 510 0
-535 511 180 0
-536 512 0
-537 513 0
-181 -182 0
-181 -183 0
-181 -184 0
-181 -185 0
-181 -186 0
-181 -187 0
-181 -188 0
-181 -189 0
-181 -190 0
-181 -191 0
-181 -192 0
-181 -193 0
-181 -194 0
-181 -195 0
-182 -183 0
-182 -184 0
-182 -185 0
-182 -186 0
-182 -187 0
-182 -188 0
-182 -189 0
-182 -190 0
-182 -191 0
-182 -192 0
-182 -193 0
-182 -194 0
-182 -195 0
-183 -184 0
-183 -185 0
-183 -186 0
-183 -187 0
-183 -188 0
-183 -189 0
-183 -190 0
-183 -191 0
-183 -192 0
-183 -193 0
-183 -194 0
-183 -195 0
-184 -185 0
-184 -186 0
-184 -187 0
-184 -188 0
-184 -189 0
-184 -190 0
-184 -191 0
-184 -192 0
-184 -193 0
-184 -194 0
-184 -195 0
-185 -186 0
-185 -187 0
-185 -188 0
-185 -189 0
-185 -190 0
-185 -191 0
-185 -192 0
-185 -193 0
-185 -194 0
-185 -195 0
-186 -187 0
-186 -188 0
-186 -189 0
-186 -190 0
-186 -191 0
-186 -192 0
-186 -193 0
-186 -194 0
-186 -195 0
-187 -188 0
-187 -189 0
-187 -190 0
-187 -191 0
-187 -192 0
-187 -193 0
-187 -194 0
-187 -195 0
-188 -189 0
-188 -190 0
-188 -191 0
-188 -192 0
-188 -193 0
-188 -194 0
-188 -195 0
-189 -190 0
-189 -191 0
-189 -192 0
-189 -193 0
-189 -194 0
-189 -195 0
-190 -191 0
-190 -192 0
-190 -193 0
-190 -194 0
-190 -195 0
-191 -192 0
-191 -193 0
-191 -194 0
-191 -195 0
-192 -193 0
-192 -194 0
-192 -195 0
-193 -194 0
-193 -195 0
-194 -195 0
-538 514 181 0
-539 515 182 0
-540 516 183 0
-541 517 0
-542 518 184 0
-543 519 185 0
-544 520 186 0
-545 521 187 0
-546 522 0
-547 523 0
-548 524 188 0
-549 525 189 0
-550 526 0
-551 527 190 0
-552 528 0
-553 529 191 0
-554 530 192 0
-555 531 193 0
-556 532 0
-557 533 194 0
-558 534 0
-559 535 195 0
-560 536 0
-561 537 0
-196 -197 0
-196 -198 0
-196 -199 0
-196 -200 0
-196 -201 0
-196 -202 0
-196 -203 0
-196 -204 0
-196 -205 0
-196 -206 0
-196 -207 0
-196 -208 0
-196 -209 0
-196 -210 0
-197 -198 0
-197 -199 0
-197 -200 0
-197 -201 0
-197 -202 0
-197 -203 0
-197 -204 0
-197 -205 0
-197 -206 0
-197 -207 0
-197 -208 0
-197 -209 0
-197 -210 0
-198 -199 0
-198 -200 0
-198 -201 0
-198 -202 0
-198 -203 0
-198 -204 0
-198 -205 0
-198 -206 0
-198 -207 0
-198 -208 0
-198 -209 0
-198 -210 0
-199 -200 0
-199 -201 0
-199 -202 0
-199 -203 0
-199 -204 0
-199 -205 0
-199 -206 0
-199 -207 0
-199 -208 0
-199 -209 0
-199 -210 0
-200 -201 0
-200 -202 0
-200 -203 0
-200 -204 0
-200 -205 0
-200 -206 0
-200 -207 0
-200 -208 0
-200 -209 0
-200 -210 0
-201 -202 0
-201 -203 0
-201 -204 0
-201 -205 0
-201 -206 0
-201 -207 0
-201 -208 0
-201 -209 0
-201 -210 0
-202 -203 0
-202 -204 0
-202 -205 0
-202 -206 0
-202 -207 0
-202 -208 0
-202 -209 0
-202 -210 0
-203 -204 0
-203 -205 0
-203 -206 0
-203 -207 0
-203 -208 0
-203 -209 0
-203 -210 0
-204 -205 0
-204 -206 0
-204 -207 0
-204 -208 0
-204 -209 0
-204 -210 0
-205 -206 0
-205 -207 0
-205 -208 0
-205 -209 0
-205 -210 0
-206 -207 0
-206 -208 0
-206 -209 0
-206 -210 0
-207 -208 0
-207 -209 0
-207 -210 0
-208 -209 0
-208 -210 0
-209 -210 0
-562 538 196 0
-563 539 197 0
-564 540 198 0
-565 541 0
-566 542 199 0
-567 543 200 0
-568 544 201 0
-569 545 202 0
-570 546 0
-571 547 0
-572 548 203 0
-573 549 204 0
-574 550 0
-575 551 205 0
-576 552 0
-577 553 206 0
-578 554 207 0
-579 555 208 0
-580 556 0
-581 557 209 0
-582 558 0
-583 559 210 0
-584 560 0
-585 561 0
-211 -212 0
-211 -213 0
-211 -214 0
-211 -215 0
-211 -216 0
-211 -217 0
-211 -218 0
-211 -219 0
-211 -220 0
-211 -221 0
-211 -222 0
-211 -223 0
-211 -224 0
-211 -225 0
-212 -213 0
-212 -214 0
-212 -215 0
-212 -216 0
-212 -217 0
-212 -218 0
-212 -219 0
-212 -220 0
-212 -221 0
-212 -222 0
-212 -223 0
-212 -224 0
-212 -225 0
-213 -214 0
-213 -215 0
-213 -216 0
-213 -217 0
-213 -218 0
-213 -219 0
-213 -220 0
-213 -221 0
-213 -222 0
-213 -223 0
-213 -224 0
-213 -225 0
-214 -215 0
-214 -216 0
-214 -217 0
-214 -218 0
-214 -219 0
-214 -220 0
-214 -221 0
-214 -222 0
-214 -223 0
-214 -224 0
-214 -225 0
-215 -216 0
-215 -217 0
-215 -218 0
-215 -219 0
-215 -220 0
-215 -221 0
-215 -222 0
-215 -223 0
-215 -224 0
-215 -225 0
-216 -217 0
-216 -218 0
-216 -219 0
-216 -220 0
-216 -221 0
-216 -222 0
-216 -223 0
-216 -224 0
-216 -225 0
-217 -218 0
-217 -219 0
-217 -220 0
-217 -221 0
-217 -222 0
-217 -223 0
-217 -224 0
-217 -225 0
-218 -219 0
-218 -220 0
-218 -221 0
-218 -222 0
-218 -223 0
-218 -224 0
-218 -225 0
-219 -220 0
-219 -221 0
-219 -222 0
-219 -223 0
-219 -224 0
-219 -225 0
-220 -221 0
-220 -222 0
-220 -223 0
-220 -224 0
-220 -225 0
-221 -222 0
-221 -223 0
-221 -224 0
-221 -225 0
-222 -223 0
-222 -224 0
-222 -225 0
-223 -224 0
-223 -225 0
-224 -225 0
-586 562 211 0
-587 563 212 0
-588 564 213 0
-589 565 0
-590 566 214 0
-591 567 215 0
-592 568 216 0
-593 569 217 0
-594 570 0
-595 571 0
-596 572 218 0
-597 573 219 0
-598 574 0
-599 575 220 0
-600 576 0
-601 577 221 0
-602 578 222 0
-603 579 223 0
-604 580 0
-605 581 224 0
-606 582 0
-607 583 225 0
-608 584 0
-609 585 0
-226 0
-227 0
-228 0
229 0
-230 0
-231 0
-232 0
-233 0
234 0
235 0
-236 0
-237 0
238 0
-239 0
240 0
-241 0
-242 0
-243 0
244 0
-245 0
246 0
-247 0
248 0
249 0
1 16 31 46 61 76 91 106 121 136 151 166 181 196 211 0
2 17 32 47 62 77 92 107 122 137 152 167 182 197 212 0
3 18 33 48 63 78 93 108 123 138 153 168 183 198 213 0
4 19 34 49 64 79 94 109 124 139 154 169 184 199 214 0
5 20 35 50 65 80 95 110 125 140 155 170 185 200 215 0
6 21 36 51 66 81 96 111 126 141 156 171 186 201 216 0
7 22 37 52 67 82 97 112 127 142 157 172 187 202 217 0
8 23 38 53 68 83 98 113 128 143 158 173 188 203 218 0
9 24 39 54 69 84 99 114 129 144 159 174 189 204 219 0
10 25 40 55 70 85 100 115 130 145 160 175 190 205 220 0
11 26 41 56 71 86 101 116 131 146 161 176 191 206 221 0
12 27 42 57 72 87 102 117 132 147 162 177 192 207 222 0
13 28 43 58 73 88 103 118 133 148 163 178 193 208 223 0
14 29 44 59 74 89 104 119 134 149 164 179 194 209 224 0
15 30 45 60 75 90 105 120 135 150 165 180 195 210 225 0
-1 0
-610 228 0
-610 241 0
-611 228 0
-611 241 0
-612 231 0
-612 233 0
-613 231 0
-613 233 0
-2 610 611 612 613 0
-614 227 0
-614 241 0
-615 227 0
-615 241 0
-616 231 0
-616 234 0
-617 231 0
-617 234 0
-618 232 0
-618 233 0
-619 232 0
-619 233 0
-3 614 615 616 617 618 619 0
-620 229 0
-620 246 0
-621 229 0
-621 246 0
-622 231 0
-622 237 0
-623 231 0
-623 237 0
-4 620 621 622 623 0
-624 227 0
-624 233 0
-625 227 0
-625 233 0
-626 228 0
-626 234 0
-627 228 0
-627 234 0
-628 229 0
-628 235 0
-629 229 0
-629 235 0
-630 230 0
-630 237 0
-631 230 0
-631 237 0
-632 232 0
-632 241 0
-633 232 0
-633 241 0
-5 624 625 626 627 628 629 630 631 632 633 0
-634 228 0
-634 233 0
-635 228 0
-635 233 0
-636 231 0
-636 241 0
-637 231 0
-637 241 0
-6 634 635 636 637 0
-638 227 0
-638 231 0
-639 227 0
-639 231 0
-640 228 0
-640 232 0
-641 228 0
-641 232 0
-642 234 0
-642 241 0
-643 234 0
-643 241 0
-7 638 639 640 641 642 643 0
-8 0
-644 230 0
-644 231 0
-645 230 0
-645 231 0
-646 235 0
-646 246 0
-647 235 0
-647 246 0
-9 644 645 646 647 0
-648 240 0
-648 244 0
-649 240 0
-649 244 0
-650 241 0
-650 243 0
-651 241 0
-651 243 0
-10 648 649 650 651 0
-652 227 0
-652 228 0
-653 227 0
-653 228 0
-654 231 0
-654 232 0
-655 231 0
-655 232 0
-656 233 0
-656 234 0
-657 233 0
-657 234 0
-658 239 0
-658 243 0
-659 239 0
-659 243 0
-660 240 0
-660 248 0
-661 240 0
-661 248 0
-11 652 653 654 655 656 657 658 659 660 661 0
-662 244 0
-662 247 0
-663 244 0
-663 247 0
-664 245 0
-664 246 0
-665 245 0
-665 246 0
-12 662 663 664 665 0
-666 239 0
-666 241 0
-667 239 0
-667 241 0
-668 244 0
-668 248 0
-669 244 0
-669 248 0
-13 666 667 668 669 0
-670 242 0
-670 246 0
-671 242 0
-671 246 0
-672 244 0
-672 249 0
-673 244 0
-673 249 0
-14 670 671 672 673 0
-674 242 0
-674 244 0
-675 242 0
-675 244 0
-676 246 0
-676 249 0
-677 246 0
-677 249 0
-15 674 675 676 677 0
-16 0
-678 252 0
-678 265 0
-679 252 0
-679 265 0
-680 255 0
-680 257 0
-681 255 0
-681 257 0
-17 678 679 680 681 0
-682 251 0
-682 265 0
-683 251 0
-683 265 0
-684 255 0
-684 258 0
-685 255 0
-685 258 0
-686 256 0
-686 257 0
-687 256 0
-687 257 0
-18 682 683 684 685 686 687 0
-688 253 0
-688 270 0
-689 253 0
-689 270 0
-690 255 0
-690 261 0
-691 255 0
-691 261 0
-19 688 689 690 691 0
-692 251 0
-692 257 0
-693 251 0
-693 257 0
-694 252 0
-694 258 0
-695 252 0
-695 258 0
-696 253 0
-696 259 0
-697 253 0
-697 259 0
-698 254 0
-698 261 0
-699 254 0
-699 261 0
-700 256 0
-700 265 0
-701 256 0
-701 265 0
-20 692 693 694 695 696 697 698 699 700 701 0
-702 252 0
-702 257 0
-703 252 0
-703 257 0
-704 255 0
-704 265 0
-705 255 0
-705 265 0
-21 702 703 704 705 0
-706 251 0
-706 255 0
-707 251 0
-707 255 0
-708 252 0
-708 256 0
-709 252 0
-709 256 0
-710 258 0
-710 265 0
-711 258 0
-711 265 0
-22 706 707 708 709 710 711 0
-23 0
-712 254 0
-712 255 0
-713 254 0
-713 255 0
-714 259 0
-714 270 0
-715 259 0
-715 270 0
-24 712 713 714 715 0
-716 264 0
-716 268 0
-717 264 0
-717 268 0
-718 265 0
-718 267 0
-719 265 0
-719 267 0
-25 716 717 718 719 0
-720 251 0
-720 252 0
-721 251 0
-721 252 0
-722 255 0
-722 256 0
-723 255 0
-723 256 0
-724 257 0
-724 258 0
-725 257 0
-725 258 0
-726 263 0
-726 267 0
-727 263 0
-727 267 0
-728 264 0
-728 272 0
-729 264 0
-729 272 0
-26 720 721 722 723 724 725 726 727 728 729 0
-730 268 0
-730 271 0
-731 268 0
-731 271 0
-732 269 0
-732 270 0
-733 269 0
-733 270 0
-27 730 731 732 733 0
-734 263 0
-734 265 0
-735 263 0
-735 265 0
-736 268 0
-736 272 0
-737 268 0
-737 272 0
-28 734 735 736 737 0
-738 266 0
-738 270 0
-739 266 0
-739 270 0
-740 268 0
-740 273 0
-741 268 0
-741 273 0
-29 738 739 740 741 0
-742 266 0
-742 268 0
-743 266 0
-743 268 0
-744 270 0
-744 273 0
-745 270 0
-745 273 0
-30 742 743 744 745 0
-31 0
-746 276 0
-746 289 0
-747 276 0
-747 289 0
-748 279 0
-748 281 0
-749 279 0
-749 281 0
-32 746 747 748 749 0
-750 275 0
-750 289 0
-751 275 0
-751 289 0
-752 279 0
-752 282 0
-753 279 0
-753 282 0
-754 280 0
-754 281 0
-755 280 0
-755 281 0
-33 750 751 752 753 754 755 0
-756 277 0
-756 294 0
-757 277 0
-757 294 0
-758 279 0
-758 285 0
-759 279 0
-759 285 0
-34 756 757 758 759 0
-760 275 0
-760 281 0
-761 275 0
-761 281 0
-762 276 0
-762 282 0
-763 276 0
-763 282 0
-764 277 0
-764 283 0
-765 277 0
-765 283 0
-766 278 0
-766 285 0
-767 278 0
-767 285 0
-768 280 0
-768 289 0
-769 280 0
-769 289 0
-35 760 761 762 763 764 765 766 767 768 769 0
-770 276 0
-770 281 0
-771 276 0
-771 281 0
-772 279 0
-772 289 0
-773 279 0
-773 289 0
-36 770 771 772 773 0
-774 275 0
-774 279 0
-775 275 0
-775 279 0
-776 276 0
-776 280 0
-777 276 0
-777 280 0
-778 282 0
-778 289 0
-779 282 0
-779 289 0
-37 774 775 776 777 778 779 0
-38 0
-780 278 0
-780 279 0
-781 278 0
-781 279 0
-782 283 0
-782 294 0
-783 283 0
-783 294 0
-39 780 781 782 783 0
-784 288 0
-784 292 0
-785 288 0
-785 292 0
-786 289 0
-786 291 0
-787 289 0
-787 291 0
-40 784 785 786 787 0
-788 275 0
-788 276 0
-789 275 0
-789 276 0
-790 279 0
-790 280 0
-791 279 0
-791 280 0
-792 281 0
-792 282 0
-793 281 0
-793 282 0
-794 287 0
-794 291 0
-795 287 0
-795 291 0
-796 288 0
-796 296 0
-797 288 0
-797 296 0
-41 788 789 790 791 792 793 794 795 796 797 0
-798 292 0
-798 295 0
-799 292 0
-799 295 0
-800 293 0
-800 294 0
-801 293 0
-801 294 0
-42 798 799 800 801 0
-802 287 0
-802 289 0
-803 287 0
-803 289 0
-804 292 0
-804 296 0
-805 292 0
-805 296 0
-43 802 803 804 805 0
-806 290 0
-806 294 0
-807 290 0
-807 294 0
-808 292 0
-808 297 0
-809 292 0
-809 297 0
-44 806 807 808 809 0
-810 290 0
-810 292 0
-811 290 0
-811 292 0
-812 294 0
-812 297 0
-813 294 0
-813 297 0
-45 810 811 812 813 0
-46 0
-814 300 0
-814 313 0
-815 300 0
-815 313 0
-816 303 0
-816 305 0
-817 303 0
-817 305 0
-47 814 815 816 817 0
-818 299 0
-818 313 0
-819 299 0
-819 313 0
-820 303 0
-820 306 0
-821 303 0
-821 306 0
-822 304 0
-822 305 0
-823 304 0
-823 305 0
-48 818 819 820 821 822 823 0
-824 301 0
-824 318 0
-825 301 0
-825 318 0
-826 303 0
-826 309 0
-827 303 0
-827 309 0
-49 824 825 826 827 0
-828 299 0
-828 305 0
-829 299 0
-829 305 0
-830 300 0
-830 306 0
-831 300 0
-831 306 0
-832 301 0
-832 307 0
-833 301 0
-833 307 0
-834 302 0
-834 309 0
-835 302 0
-835 309 0
-836 304 0
-836 313 0
-837 304 0
-837 313 0
-50 828 829 830 831 832 833 834 835 836 837 0
-838 300 0
-838 305 0
-839 300 0
-839 305 0
-840 303 0
-840 313 0
-841 303 0
-841 313 0
-51 838 839 840 841 0
-842 299 0
-842 303 0
-843 299 0
-843 303 0
-844 300 0
-844 304 0
-845 300 0
-845 304 0
-846 306 0
-846 313 0
-847 306 0
-847 313 0
-52 842 843 844 845 846 847 0
-53 0
-848 302 0
-848 303 0
-849 302 0
-849 303 0
-850 307 0
-850 318 0
-851 307 0
-851 318 0
-54 848 849 850 851 0
-852 312 0
-852 316 0
-853 312 0
-853 316 0
-854 313 0
-854 315 0
-855 313 0
-855 315 0
-55 852 853 854 855 0
-856 299 0
-856 300 0
-857 299 0
-857 300 0
-858 303 0
-858 304 0
-859 303 0
-859 304 0
-860 305 0
-860 306 0
-861 305 0
-861 306 0
-862 311 0
-862 315 0
-863 311 0
-863 315 0
-864 312 0
-864 320 0
-865 312 0
-865 320 0
-56 856 857 858 859 860 861 862 863 864 865 0
-866 316 0
-866 319 0
-867 316 0
-867 319 0
-868 317 0
-868 318 0
-869 317 0
-869 318 0
-57 866 867 868 869 0
-870 311 0
-870 313 0
-871 311 0
-871 313 0
-872 316 0
-872 320 0
-873 316 0
-873 320 0
-58 870 871 872 873 0
-874 314 0
-874 318 0
-875 314 0
-875 318 0
-876 316 0
-876 321 0
-877 316 0
-877 321 0
-59 874 875 876 877 0
-878 314 0
-878 316 0
-879 314 0
-879 316 0
-880 318 0
-880 321 0
-881 318 0
-881 321 0
-60 878 879 880 881 0
-61 0
-882 324 0
-882 337 0
-883 324 0
-883 337 0
-884 327 0
-884 329 0
-885 327 0
-885 329 0
-62 882 883 884 885 0
-886 323 0
-886 337 0
-887 323 0
-887 337 0
-888 327 0
-888 330 0
-889 327 0
-889 330 0
-890 328 0
-890 329 0
-891 328 0
-891 329 0
-63 886 887 888 889 890 891 0
-892 325 0
-892 342 0
-893 325 0
-893 342 0
-894 327 0
-894 333 0
-895 327 0
-895 333 0
-64 892 893 894 895 0
-896 323 0
-896 329 0
-897 323 0
-897 329 0
-898 324 0
-898 330 0
-899 324 0
-899 330 0
-900 325 0
-900 331 0
-901 325 0
-901 331 0
-902 326 0
-902 333 0
-903 326 0
-903 333 0
-904 328 0
-904 337 0
-905 328 0
-905 337 0
-65 896 897 898 899 900 901 902 903 904 905 0
-906 324 0
-906 329 0
-907 324 0
-907 329 0
-908 327 0
-908 337 0
-909 327 0
-909 337 0
-66 906 907 908 909 0
-910 323 0
-910 327 0
-911 323 0
-911 327 0
-912 324 0
-912 328 0
-913 324 0
-913 328 0
-914 330 0
-914 337 0
-915 330 0
-915 337 0
-67 910 911 912 913 914 915 0
-68 0
-916 326 0
-916 327 0
-917 326 0
-917 327 0
-918 331 0
-918 342 0
-919 331 0
-919 342 0
-69 916 917 918 919 0
-920 336 0
-920 340 0
-921 336 0
-921 340 0
-922 337 0
-922 339 0
-923 337 0
-923 339 0
-70 920 921 922 923 0
-924 323 0
-924 324 0
-925 323 0
-925 324 0
-926 327 0
-926 328 0
-927 327 0
-927 328 0
-928 329 0
-928 330 0
-929 329 0
-929 330 0
-930 335 0
-930 339 0
-931 335 0
-931 339 0
-932 336 0
-932 344 0
-933 336 0
-933 344 0
-71 924 925 926 927 928 929 930 931 932 933 0
-934 340 0
-934 343 0
-935 340 0
-935 343 0
-936 341 0
-936 342 0
-937 341 0
-937 342 0
-72 934 935 936 937 0
-938 335 0
-938 337 0
-939 335 0
-939 337 0
-940 340 0
-940 344 0
-941 340 0
-941 344 0
-73 938 939 940 941 0
-942 338 0
-942 342 0
-943 338 0
-943 342 0
-944 340 0
-944 345 0
-945 340 0
-945 345 0
-74 942 943 944 945 0
-946 338 0
-946 340 0
-947 338 0
-947 340 0
-948 342 0
-948 345 0
-949 342 0
-949 345 0
-75 946 947 948 949 0
-76 0
-950 348 0
-950 361 0
-951 348 0
-951 361 0
-952 351 0
-952 353 0
-953 351 0
-953 353 0
-77 950 951 952 953 0
-954 347 0
-954 361 0
-955 347 0
-955 361 0
-956 351 0
-956 354 0
-957 351 0
-957 354 0
-958 352 0
-958 353 0
-959 352 0
-959 353 0
-78 954 955 956 957 958 959 0
-960 349 0
-960 366 0
-961 349 0
-961 366 0
-962 351 0
-962 357 0
-963 351 0
-963 357 0
-79 960 961 962 963 0
-964 347 0
-964 353 0
-965 347 0
-965 353 0
-966 348 0
-966 354 0
-967 348 0
-967 354 0
-968 349 0
-968 355 0
-969 349 0
-969 355 0
-970 350 0
-970 357 0
-971 350 0
-971 357 0
-972 352 0
-972 361 0
-973 352 0
-973 361 0
-80 964 965 966 967 968 969 970 971 972 973 0
-974 348 0
-974 353 0
-975 348 0
-975 353 0
-976 351 0
-976 361 0
-977 351 0
-977 361 0
-81 974 975 976 977 0
-978 347 0
-978 351 0
-979 347 0
-979 351 0
-980 348 0
-980 352 0
-981 348 0
-981 352 0
-982 354 0
-982 361 0
-983 354 0
-983 361 0
-82 978 979 980 981 982 983 0
-83 0
-984 350 0
-984 351 0
-985 350 0
-985 351 0
-986 355 0
-986 366 0
-987 355 0
-987 366 0
-84 984 985 986 987 0
-988 360 0
-988 364 0
-989 360 0
-989 364 0
-990 361 0
-990 363 0
-991 361 0
-991 363 0
-85 988 989 990 991 0
-992 347 0
-992 348 0
-993 347 0
-993 348 0
-994 351 0
-994 352 0
-995 351 0
-995 352 0
-996 353 0
-996 354 0
-997 353 0
-997 354 0
-998 359 0
-998 363 0
-999 359 0
-999 363 0
-1000 360 0
-1000 368 0
-1001 360 0
-1001 368 0
-86 992 993 994 995 996 997 998 999 1000 1001 0
-1002 364 0
-1002 367 0
-1003 364 0
-1003 367 0
-1004 365 0
-1004 366 0
-1005 365 0
-1005 366 0
-87 1002 1003 1004 1005 0
-1006 359 0
-1006 361 0
-1007 359 0
-1007 361 0
-1008 364 0
-1008 368 0
-1009 364 0
-1009 368 0
-88 1006 1007 1008 1009 0
-1010 362 0
-1010 366 0
-1011 362 0
-1011 366 0
-1012 364 0
-1012 369 0
-1013 364 0
-1013 369 0
-89 1010 1011 1012 1013 0
-1014 362 0
-1014 364 0
-1015 362 0
-1015 364 0
-1016 366 0
-1016 369 0
-1017 366 0
-1017 369 0
-90 1014 1015 1016 1017 0
-91 0
-1018 372 0
-1018 385 0
-1019 372 0
-1019 385 0
-1020 375 0
-1020 377 0
-1021 375 0
-1021 377 0
-92 1018 1019 1020 1021 0
-1022 371 0
-1022 385 0
-1023 371 0
-1023 385 0
-1024 375 0
-1024 378 0
-1025 375 0
-1025 378 0
-1026 376 0
-1026 377 0
-1027 376 0
-1027 377 0
-93 1022 1023 1024 1025 1026 1027 0
-1028 373 0
-1028 390 0
-1029 373 0
-1029 390 0
-1030 375 0
-1030 381 0
-1031 375 0
-1031 381 0
-94 1028 1029 1030 1031 0
-1032 371 0
-1032 377 0
-1033 371 0
-1033 377 0
-1034 372 0
-1034 378 0
-1035 372 0
-1035 378 0
-1036 373 0
-1036 379 0
-1037 373 0
-1037 379 0
-1038 374 0
-1038 381 0
-1039 374 0
-1039 381 0
-1040 376 0
-1040 385 0
-1041 376 0
-1041 385 0
-95 1032 1033 1034 1035 1036 1037 1038 1039 1040 1041 0
-1042 372 0
-1042 377 0
-1043 372 0
-1043 377 0
-1044 375 0
-1044 385 0
-1045 375 0
-1045 385 0
-96 1042 1043 1044 1045 0
-1046 371 0
-1046 375 0
-1047 371 0
-1047 375 0
-1048 372 0
-1048 376 0
-1049 372 0
-1049 376 0
-1050 378 0
-1050 385 0
-1051 378 0
-1051 385 0
-97 1046 1047 1048 1049 1050 1051 0
-98 0
-1052 374 0
-1052 375 0
-1053 374 0
-1053 375 0
-1054 379 0
-1054 390 0
-1055 379 0
-1055 390 0
-99 1052 1053 1054 1055 0
-1056 384 0
-1056 388 0
-1057 384 0
-1057 388 0
-1058 385 0
-1058 387 0
-1059 385 0
-1059 387 0
-100 1056 1057 1058 1059 0
-1060 371 0
-1060 372 0
-1061 371 0
-1061 372 0
-1062 375 0
-1062 376 0
-1063 375 0
-1063 376 0
-1064 377 0
-1064 378 0
-1065 377 0
-1065 378 0
-1066 383 0
-1066 387 0
-1067 383 0
-1067 387 0
-1068 384 0
-1068 392 0
-1069 384 0
-1069 392 0
-101 1060 1061 1062 1063 1064 1065 1066 1067 1068 1069 0
-1070 388 0
-1070 391 0
-1071 388 0
-1071 391 0
-1072 389 0
-1072 390 0
-1073 389 0
-1073 390 0
-102 1070 1071 1072 1073 0
-1074 383 0
-1074 385 0
-1075 383 0
-1075 385 0
-1076 388 0
-1076 392 0
-1077 388 0
-1077 392 0
-103 1074 1075 1076 1077 0
-1078 386 0
-1078 390 0
-1079 386 0
-1079 390 0
-1080 388 0
-1080 393 0
-1081 388 0
-1081 393 0
-104 1078 1079 1080 1081 0
-1082 386 0
-1082 388 0
-1083 386 0
-1083 388 0
-1084 390 0
-1084 393 0
-1085 390 0
-1085 393 0
-105 1082 1083 1084 1085 0
-106 0
-1086 396 0
-1086 409 0
-1087 396 0
-1087 409 0
-1088 399 0
-1088 401 0
-1089 399 0
-1089 401 0
-107 1086 1087 1088 1089 0
-1090 395 0
-1090 409 0
-1091 395 0
-1091 409 0
-1092 399 0
-1092 402 0
-1093 399 0
-1093 402 0
-1094 400 0
-1094 401 0
-1095 400 0
-1095 401 0
-108 1090 1091 1092 1093 1094 1095 0
-1096 397 0
-1096 414 0
-1097 397 0
-1097 414 0
-1098 399 0
-1098 405 0
-1099 399 0
-1099 405 0
-109 1096 1097 1098 1099 0
-1100 395 0
-1100 401 0
-1101 395 0
-1101 401 0
-1102 396 0
-1102 402 0
-1103 396 0
-1103 402 0
-1104 397 0
-1104 403 0
-1105 397 0
-1105 403 0
-1106 398 0
-1106 405 0
-1107 398 0
-1107 405 0
-1108 400 0
-1108 409 0
-1109 400 0
-1109 409 0
-110 1100 1101 1102 1103 1104 1105 1106 1107 1108 1109 0
-1110 396 0
-1110 401 0
-1111 396 0
-1111 401 0
-1112 399 0
-1112 409 0
-1113 399 0
-1113 409 0
-111 1110 1111 1112 1113 0
-1114 395 0
-1114 399 0
-1115 395 0
-1115 399 0
-1116 396 0
-1116 400 0
-1117 396 0
-1117 400 0
-1118 402 0
-1118 409 0
-1119 402 0
-1119 409 0
-112 1114 1115 1116 1117 1118 1119 0
-113 0
-1120 398 0
-1120 399 0
-1121 398 0
-1121 399 0
-1122 403 0
-1122 414 0
-1123 403 0
-1123 414 0
-114 1120 1121 1122 1123 0
-1124 408 0
-1124 412 0
-1125 408 0
-1125 412 0
-1126 409 0
-1126 411 0
-1127 409 0
-1127 411 0
-115 1124 1125 1126 1127 0
-1128 395 0
-1128 396 0
-1129 395 0
-1129 396 0
-1130 399 0
-1130 400 0
-1131 399 0
-1131 400 0
-1132 401 0
-1132 402 0
-1133 401 0
-1133 402 0
-1134 407 0
-1134 411 0
-1135 407 0
-1135 411 0
-1136 408 0
-1136 416 0
-1137 408 0
-1137 416 0
-116 1128 1129 1130 1131 1132 1133 1134 1135 1136 1137 0
-1138 412 0
-1138 415 0
-1139 412 0
-1139 415 0
-1140 413 0
-1140 414 0
-1141 413 0
-1141 414 0
-117 1138 1139 1140 1141 0
-1142 407 0
-1142 409 0
-1143 407 0
-1143 409 0
-1144 412 0
-1144 416 0
-1145 412 0
-1145 416 0
-118 1142 1143 1144 1145 0
-1146 410 0
-1146 414 0
-1147 410 0
-1147 414 0
-1148 412 0
-1148 417 0
-1149 412 0
-1149 417 0
-119 1146 1147 1148 1149 0
-1150 410 0
-1150 412 0
-1151 410 0
-1151 412 0
-1152 414 0
-1152 417 0
-1153 414 0
-1153 417 0
-120 1150 1151 1152 1153 0
-121 0
-1154 420 0
-1154 433 0
-1155 420 0
-1155 433 0
-1156 423 0
-1156 425 0
-1157 423 0
-1157 425 0
-122 1154 1155 1156 1157 0
-1158 419 0
-1158 433 0
-1159 419 0
-1159 433 0
-1160 423 0
-1160 426 0
-1161 423 0
-1161 426 0
-1162 424 0
-1162 425 0
-1163 424 0
-1163 425 0
-123 1158 1159 1160 1161 1162 1163 0
-1164 421 0
-1164 438 0
-1165 421 0
-1165 438 0
-1166 423 0
-1166 429 0
-1167 423 0
-1167 429 0
-124 1164 1165 1166 1167 0
-1168 419 0
-1168 425 0
-1169 419 0
-1169 425 0
-1170 420 0
-1170 426 0
-1171 420 0
-1171 426 0
-1172 421 0
-1172 427 0
-1173 421 0
-1173 427 0
-1174 422 0
-1174 429 0
-1175 422 0
-1175 429 0
-1176 424 0
-1176 433 0
-1177 424 0
-1177 433 0
-125 1168 1169 1170 1171 1172 1173 1174 1175 1176 1177 0
-1178 420 0
-1178 425 0
-1179 420 0
-1179 425 0
-1180 423 0
-1180 433 0
-1181 423 0
-1181 433 0
-126 1178 1179 1180 1181 0
-1182 419 0
-1182 423 0
-1183 419 0
-1183 423 0
-1184 420 0
-1184 424 0
-1185 420 0
-1185 424 0
-1186 426 0
-1186 433 0
-1187 426 0
-1187 433 0
-127 1182 1183 1184 1185 1186 1187 0
-128 0
-1188 422 0
-1188 423 0
-1189 422 0
-1189 423 0
-1190 427 0
-1190 438 0
-1191 427 0
-1191 438 0
-129 1188 1189 1190 1191 0
-1192 432 0
-1192 436 0
-1193 432 0
-1193 436 0
-1194 433 0
-1194 435 0
-1195 433 0
-1195 435 0
-130 1192 1193 1194 1195 0
-1196 419 0
-1196 420 0
-1197 419 0
-1197 420 0
-1198 423 0
-1198 424 0
-1199 423 0
-1199 424 0
-1200 425 0
-1200 426 0
-1201 425 0
-1201 426 0
-1202 431 0
-1202 435 0
-1203 431 0
-1203 435 0
-1204 432 0
-1204 440 0
-1205 432 0
-1205 440 0
-131 1196 1197 1198 1199 1200 1201 1202 1203 1204 1205 0
-1206 436 0
-1206 439 0
-1207 436 0
-1207 439 0
-1208 437 0
-1208 438 0
-1209 437 0
-1209 438 0
-132 1206 1207 1208 1209 0
-1210 431 0
-1210 433 0
-1211 431 0
-1211 433 0
-1212 436 0
-1212 440 0
-1213 436 0
-1213 440 0
-133 1210 1211 1212 1213 0
-1214 434 0
-1214 438 0
-1215 434 0
-1215 438 0
-1216 436 0
-1216 441 0
-1217 436 0
-1217 441 0
-134 1214 1215 1216 1217 0
-1218 434 0
-1218 436 0
-1219 434 0
-1219 436 0
-1220 438 0
-1220 441 0
-1221 438 0
-1221 441 0
-135 1218 1219 1220 1221 0
-136 0
-1222 444 0
-1222 457 0
-1223 444 0
-1223 457 0
-1224 447 0
-1224 449 0
-1225 447 0
-1225 449 0
-137 1222 1223 1224 1225 0
-1226 443 0
-1226 457 0
-1227 443 0
-1227 457 0
-1228 447 0
-1228 450 0
-1229 447 0
-1229 450 0
-1230 448 0
-1230 449 0
-1231 448 0
-1231 449 0
-138 1226 1227 1228 1229 1230 1231 0
-1232 445 0
-1232 462 0
-1233 445 0
-1233 462 0
-1234 447 0
-1234 453 0
-1235 447 0
-1235 453 0
-139 1232 1233 1234 1235 0
-1236 443 0
-1236 449 0
-1237 443 0
-1237 449 0
-1238 444 0
-1238 450 0
-1239 444 0
-1239 450 0
-1240 445 0
-1240 451 0
-1241 445 0
-1241 451 0
-1242 446 0
-1242 453 0
-1243 446 0
-1243 453 0
-1244 448 0
-1244 457 0
-1245 448 0
-1245 457 0
-140 1236 1237 1238 1239 1240 1241 1242 1243 1244 1245 0
-1246 444 0
-1246 449 0
-1247 444 0
-1247 449 0
-1248 447 0
-1248 457 0
-1249 447 0
-1249 457 0
-141 1246 1247 1248 1249 0
-1250 443 0
-1250 447 0
-1251 443 0
-1251 447 0
-1252 444 0
-1252 448 0
-1253 444 0
-1253 448 0
-1254 450 0
-1254 457 0
-1255 450 0
-1255 457 0
-142 1250 1251 1252 1253 1254 1255 0
-143 0
-1256 446 0
-1256 447 0
-1257 446 0
-1257 447 0
-1258 451 0
-1258 462 0
-1259 451 0
-1259 462 0
-144 1256 1257 1258 1259 0
-1260 456 0
-1260 460 0
-1261 456 0
-1261 460 0
-1262 457 0
-1262 459 0
-1263 457 0
-1263 459 0
-145 1260 1261 1262 1263 0
-1264 443 0
-1264 444 0
-1265 443 0
-1265 444 0
-1266 447 0
-1266 448 0
-1267 447 0
-1267 448 0
-1268 449 0
-1268 450 0
-1269 449 0
-1269 450 0
-1270 455 0
-1270 459 0
-1271 455 0
-1271 459 0
-1272 456 0
-1272 464 0
-1273 456 0
-1273 464 0
-146 1264 1265 1266 1267 1268 1269 1270 1271 1272 1273 0
-1274 460 0
-1274 463 0
-1275 460 0
-1275 463 0
-1276 461 0
-1276 462 0
-1277 461 0
-1277 462 0
-147 1274 1275 1276 1277 0
-1278 455 0
-1278 457 0
-1279 455 0
-1279 457 0
-1280 460 0
-1280 464 0
-1281 460 0
-1281 464 0
-148 1278 1279 1280 1281 0
-1282 458 0
-1282 462 0
-1283 458 0
-1283 462 0
-1284 460 0
-1284 465 0
-1285 460 0
-1285 465 0
-149 1282 1283 1284 1285 0
-1286 458 0
-1286 460 0
-1287 458 0
-1287 460 0
-1288 462 0
-1288 465 0
-1289 462 0
-1289 465 0
-150 1286 1287 1288 1289 0
-151 0
-1290 468 0
-1290 481 0
-1291 468 0
-1291 481 0
-1292 471 0
-1292 473 0
-1293 471 0
-1293 473 0
-152 1290 1291 1292 1293 0
-1294 467 0
-1294 481 0
-1295 467 0
-1295 481 0
-1296 471 0
-1296 474 0
-1297 471 0
-1297 474 0
-1298 472 0
-1298 473 0
-1299 472 0
-1299 473 0
-153 1294 1295 1296 1297 1298 1299 0
-1300 469 0
-1300 486 0
-1301 469 0
-1301 486 0
-1302 471 0
-1302 477 0
-1303 471 0
-1303 477 0
-154 1300 1301 1302 1303 0
-1304 467 0
-1304 473 0
-1305 467 0
-1305 473 0
-1306 468 0
-1306 474 0
-1307 468 0
-1307 474 0
-1308 469 0
-1308 475 0
-1309 469 0
-1309 475 0
-1310 470 0
-1310 477 0
-1311 470 0
-1311 477 0
-1312 472 0
-1312 481 0
-1313 472 0
-1313 481 0
-155 1304 1305 1306 1307 1308 1309 1310 1311 1312 1313 0
-1314 468 0
-1314 473 0
-1315 468 0
-1315 473 0
-1316 471 0
-1316 481 0
-1317 471 0
-1317 481 0
-156 1314 1315 1316 1317 0
-1318 467 0
-1318 471 0
-1319 467 0
-1319 471 0
-1320 468 0
-1320 472 0
-1321 468 0
-1321 472 0
-1322 474 0
-1322 481 0
-1323 474 0
-1323 481 0
-157 1318 1319 1320 1321 1322 1323 0
-158 0
-1324 470 0
-1324 471 0
-1325 470 0
-1325 471 0
-1326 475 0
-1326 486 0
-1327 475 0
-1327 486 0
-159 1324 1325 1326 1327 0
-1328 480 0
-1328 484 0
-1329 480 0
-1329 484 0
-1330 481 0
-1330 483 0
-1331 481 0
-1331 483 0
-160 1328 1329 1330 1331 0
-1332 467 0
-1332 468 0
-1333 467 0
-1333 468 0
-1334 471 0
-1334 472 0
-1335 471 0
-1335 472 0
-1336 473 0
-1336 474 0
-1337 473 0
-1337 474 0
-1338 479 0
-1338 483 0
-1339 479 0
-1339 483 0
-1340 480 0
-1340 488 0
-1341 480 0
-1341 488 0
-161 1332 1333 1334 1335 1336 1337 1338 1339 1340 1341 0
-1342 484 0
-1342 487 0
-1343 484 0
-1343 487 0
-1344 485 0
-1344 486 0
-1345 485 0
-1345 486 0
-162 1342 1343 1344 1345 0
-1346 479 0
-1346 481 0
-1347 479 0
-1347 481 0
-1348 484 0
-1348 488 0
-1349 484 0
-1349 488 0
-163 1346 1347 1348 1349 0
-1350 482 0
-1350 486 0
-1351 482 0
-1351 486 0
-1352 484 0
-1352 489 0
-1353 484 0
-1353 489 0
-164 1350 1351 1352 1353 0
-1354 482 0
-1354 484 0
-1355 482 0
-1355 484 0
-1356 486 0
-1356 489 0
-1357 486 0
-1357 489 0
-165 1354 1355 1356 1357 0
-166 0
-1358 492 0
-1358 505 0
-1359 492 0
-1359 505 0
-1360 495 0
-1360 497 0
-1361 495 0
-1361 497 0
-167 1358 1359 1360 1361 0
-1362 491 0
-1362 505 0
-1363 491 0
-1363 505 0
-1364 495 0
-1364 498 0
-1365 495 0
-1365 498 0
-1366 496 0
-1366 497 0
-1367 496 0
-1367 497 0
-168 1362 1363 1364 1365 1366 1367 0
-1368 493 0
-1368 510 0
-1369 493 0
-1369 510 0
-1370 495 0
-1370 501 0
-1371 495 0
-1371 501 0
-169 1368 1369 1370 1371 0
-1372 491 0
-1372 497 0
-1373 491 0
-1373 497 0
-1374 492 0
-1374 498 0
-1375 492 0
-1375 498 0
-1376 493 0
-1376 499 0
-1377 493 0
-1377 499 0
-1378 494 0
-1378 501 0
-1379 494 0
-1379 501 0
-1380 496 0
-1380 505 0
-1381 496 0
-1381 505 0
-170 1372 1373 1374 1375 1376 1377 1378 1379 1380 1381 0
-1382 492 0
-1382 497 0
-1383 492 0
-1383 497 0
-1384 495 0
-1384 505 0
-1385 495 0
-1385 505 0
-171 1382 1383 1384 1385 0
-1386 491 0
-1386 495 0
-1387 491 0
-1387 495 0
-1388 492 0
-1388 496 0
-1389 492 0
-1389 496 0
-1390 498 0
-1390 505 0
-1391 498 0
-1391 505 0
-172 1386 1387 1388 1389 1390 1391 0
-173 0
-1392 494 0
-1392 495 0
-1393 494 0
-1393 495 0
-1394 499 0
-1394 510 0
-1395 499 0
-1395 510 0
-174 1392 1393 1394 1395 0
-1396 504 0
-1396 508 0
-1397 504 0
-1397 508 0
-1398 505 0
-1398 507 0
-1399 505 0
-1399 507 0
-175 1396 1397 1398 1399 0
-1400 491 0
-1400 492 0
-1401 491 0
-1401 492 0
-1402 495 0
-1402 496 0
-1403 495 0
-1403 496 0
-1404 497 0
-1404 498 0
-1405 497 0
-1405 498 0
-1406 503 0
-1406 507 0
-1407 503 0
-1407 507 0
-1408 504 0
-1408 512 0
-1409 504 0
-1409 512 0
-176 1400 1401 1402 1403 1404 1405 1406 1407 1408 1409 0
-1410 508 0
-1410 511 0
-1411 508 0
-1411 511 0
-1412 509 0
-1412 510 0
-1413 509 0
-1413 510 0
-177 1410 1411 1412 1413 0
-1414 503 0
-1414 505 0
-1415 503 0
-1415 505 0
-1416 508 0
-1416 512 0
-1417 508 0
-1417 512 0
-178 1414 1415 1416 1417 0
-1418 506 0
-1418 510 0
-1419 506 0
-1419 510 0
-1420 508 0
-1420 513 0
-1421 508 0
-1421 513 0
-179 1418 1419 1420 1421 0
-1422 506 0
-1422 508 0
-1423 506 0
-1423 508 0
-1424 510 0
-1424 513 0
-1425 510 0
-1425 513 0
-180 1422 1423 1424 1425 0
-181 0
-1426 516 0
-1426 529 0
-1427 516 0
-1427 529 0
-1428 519 0
-1428 521 0
-1429 519 0
-1429 521 0
-182 1426 1427 1428 1429 0
-1430 515 0
-1430 529 0
-1431 515 0
-1431 529 0
-1432 519 0
-1432 522 0
-1433 519 0
-1433 522 0
-1434 520 0
-1434 521 0
-1435 520 0
-1435 521 0
-183 1430 1431 1432 1433 1434 1435 0
-1436 517 0
-1436 534 0
-1437 517 0
-1437 534 0
-1438 519 0
-1438 525 0
-1439 519 0
-1439 525 0
-184 1436 1437 1438 1439 0
-1440 515 0
-1440 521 0
-1441 515 0
-1441 521 0
-1442 516 0
-1442 522 0
-1443 516 0
-1443 522 0
-1444 517 0
-1444 523 0
-1445 517 0
-1445 523 0
-1446 518 0
-1446 525 0
-1447 518 0
-1447 525 0
-1448 520 0
-1448 529 0
-1449 520 0
-1449 529 0
-185 1440 1441 1442 1443 1444 1445 1446 1447 1448 1449 0
-1450 516 0
-1450 521 0
-1451 516 0
-1451 521 0
-1452 519 0
-1452 529 0
-1453 519 0
-1453 529 0
-186 1450 1451 1452 1453 0
-1454 515 0
-1454 519 0
-1455 515 0
-1455 519 0
-1456 516 0
-1456 520 0
-1457 516 0
-1457 520 0
-1458 522 0
-1458 529 0
-1459 522 0
-1459 529 0
-187 1454 1455 1456 1457 1458 1459 0
-188 0
-1460 518 0
-1460 519 0
-1461 518 0
-1461 519 0
-1462 523 0
-1462 534 0
-1463 523 0
-1463 534 0
-189 1460 1461 1462 1463 0
-1464 528 0
-1464 532 0
-1465 528 0
-1465 532 0
-1466 529 0
-1466 531 0
-1467 529 0
-1467 531 0
-190 1464 1465 1466 1467 0
-1468 515 0
-1468 516 0
-1469 515 0
-1469 516 0
-1470 519 0
-1470 520 0
-1471 519 0
-1471 520 0
-1472 521 0
-1472 522 0
-1473 521 0
-1473 522 0
-1474 527 0
-1474 531 0
-1475 527 0
-1475 531 0
-1476 528 0
-1476 536 0
-1477 528 0
-1477 536 0
-191 1468 1469 1470 1471 1472 1473 1474 1475 1476 1477 0
-1478 532 0
-1478 535 0
-1479 532 0
-1479 535 0
-1480 533 0
-1480 534 0
-1481 533 0
-1481 534 0
-192 1478 1479 1480 1481 0
-1482 527 0
-1482 529 0
-1483 527 0
-1483 529 0
-1484 532 0
-1484 536 0
-1485 532 0
-1485 536 0
-193 1482 1483 1484 1485 0
-1486 530 0
-1486 534 0
-1487 530 0
-1487 534 0
-1488 532 0
-1488 537 0
-1489 532 0
-1489 537 0
-194 1486 1487 1488 1489 0
-1490 530 0
-1490 532 0
-1491 530 0
-1491 532 0
-1492 534 0
-1492 537 0
-1493 534 0
-1493 537 0
-195 1490 1491 1492 1493 0
-196 0
-1494 540 0
-1494 553 0
-1495 540 0
-1495 553 0
-1496 543 0
-1496 545 0
-1497 543 0
-1497 545 0
-197 1494 1495 1496 1497 0
-1498 539 0
-1498 553 0
-1499 539 0
-1499 553 0
-1500 543 0
-1500 546 0
-1501 543 0
-1501 546 0
-1502 544 0
-1502 545 0
-1503 544 0
-1503 545 0
-198 1498 1499 1500 1501 1502 1503 0
-1504 541 0
-1504 558 0
-1505 541 0
-1505 558 0
-1506 543 0
-1506 549 0
-1507 543 0
-1507 549 0
-199 1504 1505 1506 1507 0
-1508 539 0
-1508 545 0
-1509 539 0
-1509 545 0
-1510 540 0
-1510 546 0
-1511 540 0
-1511 546 0
-1512 541 0
-1512 547 0
-1513 541 0
-1513 547 0
-1514 542 0
-1514 549 0
-1515 542 0
-1515 549 0
-1516 544 0
-1516 553 0
-1517 544 0
-1517 553 0
-200 1508 1509 1510 1511 1512 1513 1514 1515 1516 1517 0
-1518 540 0
-1518 545 0
-1519 540 0
-1519 545 0
-1520 543 0
-1520 553 0
-1521 543 0
-1521 553 0
-201 1518 1519 1520 1521 0
-1522 539 0
-1522 543 0
-1523 539 0
-1523 543 0
-1524 540 0
-1524 544 0
-1525 540 0
-1525 544 0
-1526 546 0
-1526 553 0
-1527 546 0
-1527 553 0
-202 1522 1523 1524 1525 1526 1527 0
-203 0
-1528 542 0
-1528 543 0
-1529 542 0
-1529 543 0
-1530 547 0
-1530 558 0
-1531 547 0
-1531 558 0
-204 1528 1529 1530 1531 0
-1532 552 0
-1532 556 0
-1533 552 0
-1533 556 0
-1534 553 0
-1534 555 0
-1535 553 0
-1535 555 0
-205 1532 1533 1534 1535 0
-1536 539 0
-1536 540 0
-1537 539 0
-1537 540 0
-1538 543 0
-1538 544 0
-1539 543 0
-1539 544 0
-1540 545 0
-1540 546 0
-1541 545 0
-1541 546 0
-1542 551 0
-1542 555 0
-1543 551 0
-1543 555 0
-1544 552 0
-1544 560 0
-1545 552 0
-1545 560 0
-206 1536 1537 1538 1539 1540 1541 1542 1543 1544 1545 0
-1546 556 0
-1546 559 0
-1547 556 0
-1547 559 0
-1548 557 0
-1548 558 0
-1549 557 0
-1549 558 0
-207 1546 1547 1548 1549 0
-1550 551 0
-1550 553 0
-1551 551 0
-1551 553 0
-1552 556 0
-1552 560 0
-1553 556 0
-1553 560 0
-208 1550 1551 1552 1553 0
-1554 554 0
-1554 558 0
-1555 554 0
-1555 558 0
-1556 556 0
-1556 561 0
-1557 556 0
-1557 561 0
-209 1554 1555 1556 1557 0
-1558 554 0
-1558 556 0
-1559 554 0
-1559 556 0
-1560 558 0
-1560 561 0
-1561 558 0
-1561 561 0
-210 1558 1559 1560 1561 0
-211 0
-1562 564 0
-1562 577 0
-1563 564 0
-1563 577 0
-1564 567 0
-1564 569 0
-1565 567 0
-1565 569 0
-212 1562 1563 1564 1565 0
-1566 563 0
-1566 577 0
-1567 563 0
-1567 577 0
-1568 567 0
-1568 570 0
-1569 567 0
-1569 570 0
-1570 568 0
-1570 569 0
-1571 568 0
-1571 569 0
-213 1566 1567 1568 1569 1570 1571 0
-1572 565 0
-1572 582 0
-1573 565 0
-1573 582 0
-1574 567 0
-1574 573 0
-1575 567 0
-1575 573 0
-214 1572 1573 1574 1575 0
-1576 563 0
-1576 569 0
-1577 563 0
-1577 569 0
-1578 564 0
-1578 570 0
-1579 564 0
-1579 570 0
-1580 565 0
-1580 571 0
-1581 565 0
-1581 571 0
-1582 566 0
-1582 573 0
-1583 566 0
-1583 573 0
-1584 568 0
-1584 577 0
-1585 568 0
-1585 577 0
-215 1576 1577 1578 1579 1580 1581 1582 1583 1584 1585 0
-1586 564 0
-1586 569 0
-1587 564 0
-1587 569 0
-1588 567 0
-1588 577 0
-1589 567 0
-1589 577 0
-216 1586 1587 1588 1589 0
-1590 563 0
-1590 567 0
-1591 563 0
-1591 567 0
-1592 564 0
-1592 568 0
-1593 564 0
-1593 568 0
-1594 570 0
-1594 577 0
-1595 570 0
-1595 577 0
-217 1590 1591 1592 1593 1594 1595 0
-218 0
-1596 566 0
-1596 567 0
-1597 566 0
-1597 567 0
-1598 571 0
-1598 582 0
-1599 571 0
-1599 582 0
-219 1596 1597 1598 1599 0
-1600 576 0
-1600 580 0
-1601 576 0
-1601 580 0
-1602 577 0
-1602 579 0
-1603 577 0
-1603 579 0
-220 1600 1601 1602 1603 0
-1604 563 0
-1604 564 0
-1605 563 0
-1605 564 0
-1606 567 0
-1606 568 0
-1607 567 0
-1607 568 0
-1608 569 0
-1608 570 0
-1609 569 0
-1609 570 0
-1610 575 0
-1610 579 0
-1611 575 0
-1611 579 0
-1612 576 0
-1612 584 0
-1613 576 0
-1613 584 0
-221 1604 1605 1606 1607 1608 1609 1610 1611 1612 1613 0
-1614 580 0
-1614 583 0
-1615 580 0
-1615 583 0
-1616 581 0
-1616 582 0
-1617 581 0
-1617 582 0
-222 1614 1615 1616 1617 0
-1618 575 0
-1618 577 0
-1619 575 0
-1619 577 0
-1620 580 0
-1620 584 0
-1621 580 0
-1621 584 0
-223 1618 1619 1620 1621 0
-1622 578 0
-1622 582 0
-1623 578 0
-1623 582 0
-1624 580 0
-1624 585 0
-1625 580 0
-1625 585 0
-224 1622 1623 1624 1625 0
-1626 578 0
-1626 580 0
-1627 578 0
-1627 580 0
-1628 582 0
-1628 585 0
-1629 582 0
-1629 585 0
-225 1626 1627 1628 1629 0
