p cnf 1494 3969
-1 -2 0
-1 -3 0
-1 -4 0
-1 -5 0
-1 -6 0
-1 -7 0
-1 -8 0
-1 -9 0
-1 -10 0
-1 -11 0
-1 -12 0
-1 -13 0
-1 -14 0
-1 -15 0
-2 -3 0
-2 -4 0
-2 -5 0
-2 -6 0
-2 -7 0
-2 -8 0
-2 -9 0
-2 -10 0
-2 -11 0
-2 -12 0
-2 -13 0
-2 -14 0
-2 -15 0
-3 -4 0
-3 -5 0
-3 -6 0
-3 -7 0
-3 -8 0
-3 -9 0
-3 -10 0
-3 -11 0
-3 -12 0
-3 -13 0
-3 -14 0
-3 -15 0
-4 -5 0
-4 -6 0
-4 -7 0
-4 -8 0
-4 -9 0
-4 -10 0
-4 -11 0
-4 -12 0
-4 -13 0
-4 -14 0
-4 -15 0
-5 -6 0
-5 -7 0
-5 -8 0
-5 -9 0
-5 -10 0
-5 -11 0
-5 -12 0
-5 -13 0
-5 -14 0
-5 -15 0
-6 -7 0
-6 -8 0
-6 -9 0
-6 -10 0
-6 -11 0
-6 -12 0
-6 -13 0
-6 -14 0
-6 -15 0
-7 -8 0
-7 -9 0
-7 -10 0
-7 -11 0
-7 -12 0
-7 -13 0
-7 -14 0
-7 -15 0
-8 -9 0
-8 -10 0
-8 -11 0
-8 -12 0
-8 -13 0
-8 -14 0
-8 -15 0
-9 -10 0
-9 -11 0
-9 -12 0
-9 -13 0
-9 -14 0
-9 -15 0
-10 -11 0
-10 -12 0
-10 -13 0
-10 -14 0
-10 -15 0
-11 -12 0
-11 -13 0
-11 -14 0
-11 -15 0
-12 -13 0
-12 -14 0
-12 -15 0
-13 -14 0
-13 -15 0
-14 -15 0
-250 226 1 0
-251 227 2 0
-252 228 3 0
-253 229 0
-254 230 4 0
-255 231 5 0
-256 232 6 0
-257 233 0
-258 234 0
-259 235 7 0
-260 236 8 0
-261 237 0
-262 238 9 0
-263 239 10 0
-264 240 0
-265 241 11 0
-266 242 12 0
-267 243 13 0
-268 244 0
-269 245 14 0
-270 246 0
-271 247 15 0
-272 248 0
-273 249 0
-16 -17 0
-16 -18 0
-16 -19 0
-16 -20 0
-16 -21 0
-16 -22 0
-16 -23 0
-16 -24 0
-16 -25 0
-16 -26 0
-16 -27 0
-16 -28 0
-16 -29 0
-16 -30 0
-17 -18 0
-17 -19 0
-17 -20 0
-17 -21 0
-17 -22 0
-17 -23 0
-17 -24 0
-17 -25 0
-17 -26 0
-17 -27 0
-17 -28 0
-17 -29 0
-17 -30 0
-18 -19 0
-18 -20 0
-18 -21 0
-18 -22 0
-18 -23 0
-18 -24 0
-18 -25 0
-18 -26 0
-18 -27 0
-18 -28 0
-18 -29 0
-18 -30 0
-19 -20 0
-19 -21 0
-19 -22 0
-19 -23 0
-19 -24 0
-19 -25 0
-19 -26 0
-19 -27 0
-19 -28 0
-19 -29 0
-19 -30 0
-20 -21 0
-20 -22 0
-20 -23 0
-20 -24 0
-20 -25 0
-20 -26 0
-20 -27 0
-20 -28 0
-20 -29 0
-20 -30 0
-21 -22 0
-21 -23 0
-21 -24 0
-21 -25 0
-21 -26 0
-21 -27 0
-21 -28 0
-21 -29 0
-21 -30 0
-22 -23 0
-22 -24 0
-22 -25 0
-22 -26 0
-22 -27 0
-22 -28 0
-22 -29 0
-22 -30 0
-23 -24 0
-23 -25 0
-23 -26 0
-23 -27 0
-23 -28 0
-23 -29 0
-23 -30 0
-24 -25 0
-24 -26 0
-24 -27 0
-24 -28 0
-24 -29 0
-24 -30 0
-25 -26 0
-25 -27 0
-25 -28 0
-25 -29 0
-25 -30 0
-26 -27 0
-26 -28 0
-26 -29 0
-26 -30 0
-27 -28 0
-27 -29 0
-27 -30 0
-28 -29 0
-28 -30 0
-29 -30 0
-274 250 16 0
-275 251 17 0
-276 252 18 0
-277 253 0
-278 254 19 0
-279 255 20 0
-280 256 21 0
-281 257 0
-282 258 0
-283 259 22 0
-284 260 23 0
-285 261 0
-286 262 24 0
-287 263 25 0
-288 264 0
-289 265 26 0
-290 266 27 0
-291 267 28 0
-292 268 0
-293 269 29 0
-294 270 0
-295 271 30 0
-296 272 0
-297 273 0
-31 -32 0
-31 -33 0
-31 -34 0
-31 -35 0
-31 -36 0
-31 -37 0
-31 -38 0
-31 -39 0
-31 -40 0
-31 -41 0
-31 -42 0
-31 -43 0
-31 -44 0
-31 -45 0
-32 -33 0
-32 -34 0
-32 -35 0
-32 -36 0
-32 -37 0
-32 -38 0
-32 -39 0
-32 -40 0
-32 -41 0
-32 -42 0
-32 -43 0
-32 -44 0
-32 -45 0
-33 -34 0
-33 -35 0
-33 -36 0
-33 -37 0
-33 -38 0
-33 -39 0
-33 -40 0
-33 -41 0
-33 -42 0
-33 -43 0
-33 -44 0
-33 -45 0
-34 -35 0
-34 -36 0
-34 -37 0
-34 -38 0
-34 -39 0
-34 -40 0
-34 -41 0
-34 -42 0
-34 -43 0
-34 -44 0
-34 -45 0
-35 -36 0
-35 -37 0
-35 -38 0
-35 -39 0
-35 -40 0
-35 -41 0
-35 -42 0
-35 -43 0
-35 -44 0
-35 -45 0
-36 -37 0
-36 -38 0
-36 -39 0
-36 -40 0
-36 -41 0
-36 -42 0
-36 -43 0
-36 -44 0
-36 -45 0
-37 -38 0
-37 -39 0
-37 -40 0
-37 -41 0
-37 -42 0
-37 -43 0
-37 -44 0
-37 -45 0
-38 -39 0
-38 -40 0
-38 -41 0
-38 -42 0
-38 -43 0
-38 -44 0
-38 -45 0
-39 -40 0
-39 -41 0
-39 -42 0
-39 -43 0
-39 -44 0
-39 -45 0
-40 -41 0
-40 -42 0
-40 -43 0
-40 -44 0
-40 -45 0
-41 -42 0
-41 -43 0
-41 -44 0
-41 -45 0
-42 -43 0
-42 -44 0
-42 -45 0
-43 -44 0
-43 -45 0
-44 -45 0
-298 274 31 0
-299 275 32 0
-300 276 33 0
-301 277 0
-302 278 34 0
-303 279 35 0
-304 280 36 0
-305 281 0
-306 282 0
-307 283 37 0
-308 284 38 0
-309 285 0
-310 286 39 0
-311 287 40 0
-312 288 0
-313 289 41 0
-314 290 42 0
-315 291 43 0
-316 292 0
-317 293 44 0
-318 294 0
-319 295 45 0
-320 296 0
-321 297 0
-46 -47 0
-46 -48 0
-46 -49 0
-46 -50 0
-46 -51 0
-46 -52 0
-46 -53 0
-46 -54 0
-46 -55 0
-46 -56 0
-46 -57 0
-46 -58 0
-46 -59 0
-46 -60 0
-47 -48 0
-47 -49 0
-47 -50 0
-47 -51 0
-47 -52 0
-47 -53 0
-47 -54 0
-47 -55 0
-47 -56 0
-47 -57 0
-47 -58 0
-47 -59 0
-47 -60 0
-48 -49 0
-48 -50 0
-48 -51 0
-48 -52 0
-48 -53 0
-48 -54 0
-48 -55 0
-48 -56 0
-48 -57 0
-48 -58 0
-48 -59 0
-48 -60 0
-49 -50 0
-49 -51 0
-49 -52 0
-49 -53 0
-49 -54 0
-49 -55 0
-49 -56 0
-49 -57 0
-49 -58 0
-49 -59 0
-49 -60 0
-50 -51 0
-50 -52 0
-50 -53 0
-50 -54 0
-50 -55 0
-50 -56 0
-50 -57 0
-50 -58 0
-50 -59 0
-50 -60 0
-51 -52 0
-51 -53 0
-51 -54 0
-51 -55 0
-51 -56 0
-51 -57 0
-51 -58 0
-51 -59 0
-51 -60 0
-52 -53 0
-52 -54 0
-52 -55 0
-52 -56 0
-52 -57 0
-52 -58 0
-52 -59 0
-52 -60 0
-53 -54 0
-53 -55 0
-53 -56 0
-53 -57 0
-53 -58 0
-53 -59 0
-53 -60 0
-54 -55 0
-54 -56 0
-54 -57 0
-54 -58 0
-54 -59 0
-54 -60 0
-55 -56 0
-55 -57 0
-55 -58 0
-55 -59 0
-55 -60 0
-56 -57 0
-56 -58 0
-56 -59 0
-56 -60 0
-57 -58 0
-57 -59 0
-57 -60 0
-58 -59 0
-58 -60 0
-59 -60 0
-322 298 46 0
-323 299 47 0
-324 300 48 0
-325 301 0
-326 302 49 0
-327 303 50 0
-328 304 51 0
-329 305 0
-330 306 0
-331 307 52 0
-332 308 53 0
-333 309 0
-334 310 54 0
-335 311 55 0
-336 312 0
-337 313 56 0
-338 314 57 0
-339 315 58 0
-340 316 0
-341 317 59 0
-342 318 0
-343 319 60 0
-344 320 0
-345 321 0
-61 -62 0
-61 -63 0
-61 -64 0
-61 -65 0
-61 -66 0
-61 -67 0
-61 -68 0
-61 -69 0
-61 -70 0
-61 -71 0
-61 -72 0
-61 -73 0
-61 -74 0
-61 -75 0
-62 -63 0
-62 -64 0
-62 -65 0
-62 -66 0
-62 -67 0
-62 -68 0
-62 -69 0
-62 -70 0
-62 -71 0
-62 -72 0
-62 -73 0
-62 -74 0
-62 -75 0
-63 -64 0
-63 -65 0
-63 -66 0
-63 -67 0
-63 -68 0
-63 -69 0
-63 -70 0
-63 -71 0
-63 -72 0
-63 -73 0
-63 -74 0
-63 -75 0
-64 -65 0
-64 -66 0
-64 -67 0
-64 -68 0
-64 -69 0
-64 -70 0
-64 -71 0
-64 -72 0
-64 -73 0
-64 -74 0
-64 -75 0
-65 -66 0
-65 -67 0
-65 -68 0
-65 -69 0
-65 -70 0
-65 -71 0
-65 -72 0
-65 -73 0
-65 -74 0
-65 -75 0
-66 -67 0
-66 -68 0
-66 -69 0
-66 -70 0
-66 -71 0
-66 -72 0
-66 -73 0
-66 -74 0
-66 -75 0
-67 -68 0
-67 -69 0
-67 -70 0
-67 -71 0
-67 -72 0
-67 -73 0
-67 -74 0
-67 -75 0
-68 -69 0
-68 -70 0
-68 -71 0
-68 -72 0
-68 -73 0
-68 -74 0
-68 -75 0
-69 -70 0
-69 -71 0
-69 -72 0
-69 -73 0
-69 -74 0
-69 -75 0
-70 -71 0
-70 -72 0
-70 -73 0
-70 -74 0
-70 -75 0
-71 -72 0
-71 -73 0
-71 -74 0
-71 -75 0
-72 -73 0
-72 -74 0
-72 -75 0
-73 -74 0
-73 -75 0
-74 -75 0
-346 322 61 0
-347 323 62 0
-348 324 63 0
-349 325 0
-350 326 64 0
-351 327 65 0
-352 328 66 0
-353 329 0
-354 330 0
-355 331 67 0
-356 332 68 0
-357 333 0
-358 334 69 0
-359 335 70 0
-360 336 0
-361 337 71 0
-362 338 72 0
-363 339 73 0
-364 340 0
-365 341 74 0
-366 342 0
-367 343 75 0
-368 344 0
-369 345 0
-76 -77 0
-76 -78 0
-76 -79 0
-76 -80 0
-76 -81 0
-76 -82 0
-76 -83 0
-76 -84 0
-76 -85 0
-76 -86 0
-76 -87 0
-76 -88 0
-76 -89 0
-76 -90 0
-77 -78 0
-77 -79 0
-77 -80 0
-77 -81 0
-77 -82 0
-77 -83 0
-77 -84 0
-77 -85 0
-77 -86 0
-77 -87 0
-77 -88 0
-77 -89 0
-77 -90 0
-78 -79 0
-78 -80 0
-78 -81 0
-78 -82 0
-78 -83 0
-78 -84 0
-78 -85 0
-78 -86 0
-78 -87 0
-78 -88 0
-78 -89 0
-78 -90 0
-79 -80 0
-79 -81 0
-79 -82 0
-79 -83 0
-79 -84 0
-79 -85 0
-79 -86 0
-79 -87 0
-79 -88 0
-79 -89 0
-79 -90 0
-80 -81 0
-80 -82 0
-80 -83 0
-80 -84 0
-80 -85 0
-80 -86 0
-80 -87 0
-80 -88 0
-80 -89 0
-80 -90 0
-81 -82 0
-81 -83 0
-81 -84 0
-81 -85 0
-81 -86 0
-81 -87 0
-81 -88 0
-81 -89 0
-81 -90 0
-82 -83 0
-82 -84 0
-82 -85 0
-82 -86 0
-82 -87 0
-82 -88 0
-82 -89 0
-82 -90 0
-83 -84 0
-83 -85 0
-83 -86 0
-83 -87 0
-83 -88 0
-83 -89 0
-83 -90 0
-84 -85 0
-84 -86 0
-84 -87 0
-84 -88 0
-84 -89 0
-84 -90 0
-85 -86 0
-85 -87 0
-85 -88 0
-85 -89 0
-85 -90 0
-86 -87 0
-86 -88 0
-86 -89 0
-86 -90 0
-87 -88 0
-87 -89 0
-87 -90 0
-88 -89 0
-88 -90 0
-89 -90 0
-370 346 76 0
-371 347 77 0
-372 348 78 0
-373 349 0
-374 350 79 0
-375 351 80 0
-376 352 81 0
-377 353 0
-378 354 0
-379 355 82 0
-380 356 83 0
-381 357 0
-382 358 84 0
-383 359 85 0
-384 360 0
-385 361 86 0
-386 362 87 0
-387 363 88 0
-388 364 0
-389 365 89 0
-390 366 0
-391 367 90 0
-392 368 0
-393 369 0
-91 -92 0
-91 -93 0
-91 -94 0
-91 -95 0
-91 -96 0
-91 -97 0
-91 -98 0
-91 -99 0
-91 -100 0
-91 -101 0
-91 -102 0
-91 -103 0
-91 -104 0
-91 -105 0
-92 -93 0
-92 -94 0
-92 -95 0
-92 -96 0
-92 -97 0
-92 -98 0
-92 -99 0
-92 -100 0
-92 -101 0
-92 -102 0
-92 -103 0
-92 -104 0
-92 -105 0
-93 -94 0
-93 -95 0
-93 -96 0
-93 -97 0
-93 -98 0
-93 -99 0
-93 -100 0
-93 -101 0
-93 -102 0
-93 -103 0
-93 -104 0
-93 -105 0
-94 -95 0
-94 -96 0
-94 -97 0
-94 -98 0
-94 -99 0
-94 -100 0
-94 -101 0
-94 -102 0
-94 -103 0
-94 -104 0
-94 -105 0
-95 -96 0
-95 -97 0
-95 -98 0
-95 -99 0
-95 -100 0
-95 -101 0
-95 -102 0
-95 -103 0
-95 -104 0
-95 -105 0
-96 -97 0
-96 -98 0
-96 -99 0
-96 -100 0
-96 -101 0
-96 -102 0
-96 -103 0
-96 -104 0
-96 -105 0
-97 -98 0
-97 -99 0
-97 -100 0
-97 -101 0
-97 -102 0
-97 -103 0
-97 -104 0
-97 -105 0
-98 -99 0
-98 -100 0
-98 -101 0
-98 -102 0
-98 -103 0
-98 -104 0
-98 -105 0
-99 -100 0
-99 -101 0
-99 -102 0
-99 -103 0
-99 -104 0
-99 -105 0
-100 -101 0
-100 -102 0
-100 -103 0
-100 -104 0
-100 -105 0
-101 -102 0
-101 -103 0
-101 -104 0
-101 -105 0
-102 -103 0
-102 -104 0
-102 -105 0
-103 -104 0
-103 -105 0
-104 -105 0
-394 370 91 0
-395 371 92 0
-396 372 93 0
-397 373 0
-398 374 94 0
-399 375 95 0
-400 376 96 0
-401 377 0
-402 378 0
-403 379 97 0
-404 380 98 0
-405 381 0
-406 382 99 0
-407 383 100 0
-408 384 0
-409 385 101 0
-410 386 102 0
-411 387 103 0
-412 388 0
-413 389 104 0
-414 390 0
-415 391 105 0
-416 392 0
-417 393 0
-106 -107 0
-106 -108 0
-106 -109 0
-106 -110 0
-106 -111 0
-106 -112 0
-106 -113 0
-106 -114 0
-106 -115 0
-106 -116 0
-106 -117 0
-106 -118 0
-106 -119 0
-106 -120 0
-107 -108 0
-107 -109 0
-107 -110 0
-107 -111 0
-107 -112 0
-107 -113 0
-107 -114 0
-107 -115 0
-107 -116 0
-107 -117 0
-107 -118 0
-107 -119 0
-107 -120 0
-108 -109 0
-108 -110 0
-108 -111 0
-108 -112 0
-108 -113 0
-108 -114 0
-108 -115 0
-108 -116 0
-108 -117 0
-108 -118 0
-108 -119 0
-108 -120 0
-109 -110 0
-109 -111 0
-109 -112 0
-109 -113 0
-109 -114 0
-109 -115 0
-109 -116 0
-109 -117 0
-109 -118 0
-109 -119 0
-109 -120 0
-110 -111 0
-110 -112 0
-110 -113 0
-110 -114 0
-110 -115 0
-110 -116 0
-110 -117 0
-110 -118 0
-110 -119 0
-110 -120 0
-111 -112 0
-111 -113 0
-111 -114 0
-111 -115 0
-111 -116 0
-111 -117 0
-111 -118 0
-111 -119 0
-111 -120 0
-112 -113 0
-112 -114 0
-112 -115 0
-112 -116 0
-112 -117 0
-112 -118 0
-112 -119 0
-112 -120 0
-113 -114 0
-113 -115 0
-113 -116 0
-113 -117 0
-113 -118 0
-113 -119 0
-113 -120 0
-114 -115 0
-114 -116 0
-114 -117 0
-114 -118 0
-114 -119 0
-114 -120 0
-115 -116 0
-115 -117 0
-115 -118 0
-115 -119 0
-115 -120 0
-116 -117 0
-116 -118 0
-116 -119 0
-116 -120 0
-117 -118 0
-117 -119 0
-117 -120 0
-118 -119 0
-118 -120 0
-119 -120 0
-418 394 106 0
-419 395 107 0
-420 396 108 0
-421 397 0
-422 398 109 0
-423 399 110 0
-424 400 111 0
-425 401 0
-426 402 0
-427 403 112 0
-428 404 113 0
-429 405 0
-430 406 114 0
-431 407 115 0
-432 408 0
-433 409 116 0
-434 410 117 0
-435 411 118 0
-436 412 0
-437 413 119 0
-438 414 0
-439 415 120 0
-440 416 0
-441 417 0
-121 -122 0
-121 -123 0
-121 -124 0
-121 -125 0
-121 -126 0
-121 -127 0
-121 -128 0
-121 -129 0
-121 -130 0
-121 -131 0
-121 -132 0
-121 -133 0
-121 -134 0
-121 -135 0
-122 -123 0
-122 -124 0
-122 -125 0
-122 -126 0
-122 -127 0
-122 -128 0
-122 -129 0
-122 -130 0
-122 -131 0
-122 -132 0
-122 -133 0
-122 -134 0
-122 -135 0
-123 -124 0
-123 -125 0
-123 -126 0
-123 -127 0
-123 -128 0
-123 -129 0
-123 -130 0
-123 -131 0
-123 -132 0
-123 -133 0
-123 -134 0
-123 -135 0
-124 -125 0
-124 -126 0
-124 -127 0
-124 -128 0
-124 -129 0
-124 -130 0
-124 -131 0
-124 -132 0
-124 -133 0
-124 -134 0
-124 -135 0
-125 -126 0
-125 -127 0
-125 -128 0
-125 -129 0
-125 -130 0
-125 -131 0
-125 -132 0
-125 -133 0
-125 -134 0
-125 -135 0
-126 -127 0
-126 -128 0
-126 -129 0
-126 -130 0
-126 -131 0
-126 -132 0
-126 -133 0
-126 -134 0
-126 -135 0
-127 -128 0
-127 -129 0
-127 -130 0
-127 -131 0
-127 -132 0
-127 -133 0
-127 -134 0
-127 -135 0
-128 -129 0
-128 -130 0
-128 -131 0
-128 -132 0
-128 -133 0
-128 -134 0
-128 -135 0
-129 -130 0
-129 -131 0
-129 -132 0
-129 -133 0
-129 -134 0
-129 -135 0
-130 -131 0
-130 -132 0
-130 -133 0
-130 -134 0
-130 -135 0
-131 -132 0
-131 -133 0
-131 -134 0
-131 -135 0
-132 -133 0
-132 -134 0
-132 -135 0
-133 -134 0
-133 -135 0
-134 -135 0
-442 418 121 0
-443 419 122 0
-444 420 123 0
-445 421 0
-446 422 124 0
-447 423 125 0
-448 424 126 0
-449 425 0
-450 426 0
-451 427 127 0
-452 428 128 0
-453 429 0
-454 430 129 0
-455 431 130 0
-456 432 0
-457 433 131 0
-458 434 132 0
-459 435 133 0
-460 436 0
-461 437 134 0
-462 438 0
-463 439 135 0
-464 440 0
-465 441 0
-136 -137 0
-136 -138 0
-136 -139 0
-136 -140 0
-136 -141 0
-136 -142 0
-136 -143 0
-136 -144 0
-136 -145 0
-136 -146 0
-136 -147 0
-136 -148 0
-136 -149 0
-136 -150 0
-137 -138 0
-137 -139 0
-137 -140 0
-137 -141 0
-137 -142 0
-137 -143 0
-137 -144 0
-137 -145 0
-137 -146 0
-137 -147 0
-137 -148 0
-137 -149 0
-137 -150 0
-138 -139 0
-138 -140 0
-138 -141 0
-138 -142 0
-138 -143 0
-138 -144 0
-138 -145 0
-138 -146 0
-138 -147 0
-138 -148 0
-138 -149 0
-138 -150 0
-139 -140 0
-139 -141 0
-139 -142 0
-139 -143 0
-139 -144 0
-139 -145 0
-139 -146 0
-139 -147 0
-139 -148 0
-139 -149 0
-139 -150 0
-140 -141 0
-140 -142 0
-140 -143 0
-140 -144 0
-140 -145 0
-140 -146 0
-140 -147 0
-140 -148 0
-140 -149 0
-140 -150 0
-141 -142 0
-141 -143 0
-141 -144 0
-141 -145 0
-141 -146 0
-141 -147 0
-141 -148 0
-141 -149 0
-141 -150 0
-142 -143 0
-142 -144 0
-142 -145 0
-142 -146 0
-142 -147 0
-142 -148 0
-142 -149 0
-142 -150 0
-143 -144 0
-143 -145 0
-143 -146 0
-143 -147 0
-143 -148 0
-143 -149 0
-143 -150 0
-144 -145 0
-144 -146 0
-144 -147 0
-144 -148 0
-144 -149 0
-144 -150 0
-145 -146 0
-145 -147 0
-145 -148 0
-145 -149 0
-145 -150 0
-146 -147 0
-146 -148 0
-146 -149 0
-146 -150 0
-147 -148 0
-147 -149 0
-147 -150 0
-148 -149 0
-148 -150 0
-149 -150 0
-466 442 136 0
-467 443 137 0
-468 444 138 0
-469 445 0
-470 446 139 0
-471 447 140 0
-472 448 141 0
-473 449 0
-474 450 0
-475 451 142 0
-476 452 143 0
-477 453 0
-478 454 144 0
-479 455 145 0
-480 456 0
-481 457 146 0
-482 458 147 0
-483 459 148 0
-484 460 0
-485 461 149 0
-486 462 0
-487 463 150 0
-488 464 0
-489 465 0
-151 -152 0
-151 -153 0
-151 -154 0
-151 -155 0
-151 -156 0
-151 -157 0
-151 -158 0
-151 -159 0
-151 -160 0
-151 -161 0
-151 -162 0
-151 -163 0
-151 -164 0
-151 -165 0
-152 -153 0
-152 -154 0
-152 -155 0
-152 -156 0
-152 -157 0
-152 -158 0
-152 -159 0
-152 -160 0
-152 -161 0
-152 -162 0
-152 -163 0
-152 -164 0
-152 -165 0
-153 -154 0
-153 -155 0
-153 -156 0
-153 -157 0
-153 -158 0
-153 -159 0
-153 -160 0
-153 -161 0
-153 -162 0
-153 -163 0
-153 -164 0
-153 -165 0
-154 -155 0
-154 -156 0
-154 -157 0
-154 -158 0
-154 -159 0
-154 -160 0
-154 -161 0
-154 -162 0
-154 -163 0
-154 -164 0
-154 -165 0
-155 -156 0
-155 -157 0
-155 -158 0
-155 -159 0
-155 -160 0
-155 -161 0
-155 -162 0
-155 -163 0
-155 -164 0
-155 -165 0
-156 -157 0
-156 -158 0
-156 -159 0
-156 -160 0
-156 -161 0
-156 -162 0
-156 -163 0
-156 -164 0
-156 -165 0
-157 -158 0
-157 -159 0
-157 -160 0
-157 -161 0
-157 -162 0
-157 -163 0
-157 -164 0
-157 -165 0
-158 -159 0
-158 -160 0
-158 -161 0
-158 -162 0
-158 -163 0
-158 -164 0
-158 -165 0
-159 -160 0
-159 -161 0
-159 -162 0
-159 -163 0
-159 -164 0
-159 -165 0
-160 -161 0
-160 -162 0
-160 -163 0
-160 -164 0
-160 -165 0
-161 -162 0
-161 -163 0
-161 -164 0
-161 -165 0
-162 -163 0
-162 -164 0
-162 -165 0
-163 -164 0
-163 -165 0
-164 -165 0
-490 466 151 0
-491 467 152 0
-492 468 153 0
-493 469 0
-494 470 154 0
-495 471 155 0
-496 472 156 0
-497 473 0
-498 474 0
-499 475 157 0
-500 476 158 0
-501 477 0
-502 478 159 0
-503 479 160 0
-504 480 0
-505 481 161 0
-506 482 162 0
-507 483 163 0
-508 484 0
-509 485 164 0
-510 486 0
-511 487 165 0
-512 488 0
-513 489 0
-166 -167 0
-166 -168 0
-166 -169 0
-166 -170 0
-166 -171 0
-166 -172 0
-166 -173 0
-166 -174 0
-166 -175 0
-166 -176 0
-166 -177 0
-166 -178 0
-166 -179 0
-166 -180 0
-167 -168 0
-167 -169 0
-167 -170 0
-167 -171 0
-167 -172 0
-167 -173 0
-167 -174 0
-167 -175 0
-167 -176 0
-167 -177 0
-167 -178 0
-167 -179 0
-167 -180 0
-168 -169 0
-168 -170 0
-168 -171 0
-168 -172 0
-168 -173 0
-168 -174 0
-168 -175 0
-168 -176 0
-168 -177 0
-168 -178 0
-168 -179 0
-168 -180 0
-169 -170 0
-169 -171 0
-169 -172 0
-169 -173 0
-169 -174 0
-169 -175 0
-169 -176 0
-169 -177 0
-169 -178 0
-169 -179 0
-169 -180 0
-170 -171 0
-170 -172 0
-170 -173 0
-170 -174 0
-170 -175 0
-170 -176 0
-170 -177 0
-170 -178 0
-170 -179 0
-170 -180 0
-171 -172 0
-171 -173 0
-171 -174 0
-171 -175 0
-171 -176 0
-171 -177 0
-171 -178 0
-171 -179 0
-171 -180 0
-172 -173 0
-172 -174 0
-172 -175 0
-172 -176 0
-172 -177 0
-172 -178 0
-172 -179 0
-172 -180 0
-173 -174 0
-173 -175 0
-173 -176 0
-173 -177 0
-173 -178 0
-173 -179 0
-173 -180 0
-174 -175 0
-174 -176 0
-174 -177 0
-174 -178 0
-174 -179 0
-174 -180 0
-175 -176 0
-175 -177 0
-175 -178 0
-175 -179 0
-175 -180 0
-176 -177 0
-176 -178 0
-176 -179 0
-176 -180 0
-177 -178 0
-177 -179 0
-177 -180 0
-178 -179 0
-178 -180 0
-179 -180 0
-514 490 166 0
-515 491 167 0
-516 492 168 0
-517 493 0
-518 494 169 0
-519 495 170 0
-520 496 171 0
-521 497 0
-522 498 0
-523 499 172 0
-524 500 173 0
-525 501 0
-526 502 174 0
-527 503 175 0
-528 504 0
-529 505 176 0
-530 506 177 0
-531 507 178 0
-532 508 0
-533 509 179 0
-534 510 0
-535 511 180 0
-536 512 0
-537 513 0
-181 -182 0
-181 -183 0
-181 -184 0
-181 -185 0
-181 -186 0
-181 -187 0
-181 -188 0
-181 -189 0
-181 -190 0
-181 -191 0
-181 -192 0
-181 -193 0
-181 -194 0
-181 -195 0
-182 -183 0
-182 -184 0
-182 -185 0
-182 -186 0
-182 -187 0
-182 -188 0
-182 -189 0
-182 -190 0
-182 -191 0
-182 -192 0
-182 -193 0
-182 -194 0
-182 -195 0
-183 -184 0
-183 -185 0
-183 -186 0
-183 -187 0
-183 -188 0
-183 -189 0
-183 -190 0
-183 -191 0
-183 -192 0
-183 -193 0
-183 -194 0
-183 -195 0
-184 -185 0
-184 -186 0
-184 -187 0
-184 -188 0
-184 -189 0
-184 -190 0
-184 -191 0
-184 -192 0
-184 -193 0
-184 -194 0
-184 -195 0
-185 -186 0
-185 -187 0
-185 -188 0
-185 -189 0
-185 -190 0
-185 -191 0
-185 -192 0
-185 -193 0
-185 -194 0
-185 -195 0
-186 -187 0
-186 -188 0
-186 -189 0
-186 -190 0
-186 -191 0
-186 -192 0
-186 -193 0
-186 -194 0
-186 -195 0
-187 -188 0
-187 -189 0
-187 -190 0
-187 -191 0
-187 -192 0
-187 -193 0
-187 -194 0
-187 -195 0
-188 -189 0
-188 -190 0
-188 -191 0
-188 -192 0
-188 -193 0
-188 -194 0
-188 -195 0
-189 -190 0
-189 -191 0
-189 -192 0
-189 -193 0
-189 -194 0
-189 -195 0
-190 -191 0
-190 -192 0
-190 -193 0
-190 -194 0
-190 -195 0
-191 -192 0
-191 -193 0
-191 -194 0
-191 -195 0
-192 -193 0
-192 -194 0
-192 -195 0
-193 -194 0
-193 -195 0
-194 -195 0
-538 514 181 0
-539 515 182 0
-540 516 183 0
-541 517 0
-542 518 184 0
-543 519 185 0
-544 520 186 0
-545 521 0
-546 522 0
-547 523 187 0
-548 524 188 0
-549 525 0
-550 526 189 0
-551 527 190 0
-552 528 0
-553 529 191 0
-554 530 192 0
-555 531 193 0
-556 532 0
-557 533 194 0
-558 534 0
-559 535 195 0
-560 536 0
-561 537 0
-196 -197 0
-196 -198 0
-196 -199 0
-196 -200 0
-196 -201 0
-196 -202 0
-196 -203 0
-196 -204 0
-196 -205 0
-196 -206 0
-196 -207 0
-196 -208 0
-196 -209 0
-196 -210 0
-197 -198 0
-197 -199 0
-197 -200 0
-197 -201 0
-197 -202 0
-197 -203 0
-197 -204 0
-197 -205 0
-197 -206 0
-197 -207 0
-197 -208 0
-197 -209 0
-197 -210 0
-198 -199 0
-198 -200 0
-198 -201 0
-198 -202 0
-198 -203 0
-198 -204 0
-198 -205 0
-198 -206 0
-198 -207 0
-198 -208 0
-198 -209 0
-198 -210 0
-199 -200 0
-199 -201 0
-199 -202 0
-199 -203 0
-199 -204 0
-199 -205 0
-199 -206 0
-199 -207 0
-199 -208 0
-199 -209 0
-199 -210 0
-200 -201 0
-200 -202 0
-200 -203 0
-200 -204 0
-200 -205 0
-200 -206 0
-200 -207 0
-200 -208 0
-200 -209 0
-200 -210 0
-201 -202 0
-201 -203 0
-201 -204 0
-201 -205 0
-201 -206 0
-201 -207 0
-201 -208 0
-201 -209 0
-201 -210 0
-202 -203 0
-202 -204 0
-202 -205 0
-202 -206 0
-202 -207 0
-202 -208 0
-202 -209 0
-202 -210 0
-203 -204 0
-203 -205 0
-203 -206 0
-203 -207 0
-203 -208 0
-203 -209 0
-203 -210 0
-204 -205 0
-204 -206 0
-204 -207 0
-204 -208 0
-204 -209 0
-204 -210 0
-205 -206 0
-205 -207 0
-205 -208 0
-205 -209 0
-205 -210 0
-206 -207 0
-206 -208 0
-206 -209 0
-206 -210 0
-207 -208 0
-207 -209 0
-207 -210 0
-208 -209 0
-208 -210 0
-209 -210 0
-562 538 196 0
-563 539 197 0
-564 540 198 0
-565 541 0
-566 542 199 0
-567 543 200 0
-568 544 201 0
-569 545 0
-570 546 0
-571 547 202 0
-572 548 203 0
-573 549 0
-574 550 204 0
-575 551 205 0
-576 552 0
-577 553 206 0
-578 554 207 0
-579 555 208 0
-580 556 0
-581 557 209 0
-582 558 0
-583 559 210 0
-584 560 0
-585 561 0
-211 -212 0
-211 -213 0
-211 -214 0
-211 -215 0
-211 -216 0
-211 -217 0
-211 -218 0
-211 -219 0
-211 -220 0
-211 -221 0
-211 -222 0
-211 -223 0
-211 -224 0
-211 -225 0
-212 -213 0
-212 -214 0
-212 -215 0
-212 -216 0
-212 -217 0
-212 -218 0
-212 -219 0
-212 -220 0
-212 -221 0
-212 -222 0
-212 -223 0
-212 -224 0
-212 -225 0
-213 -214 0
-213 -215 0
-213 -216 0
-213 -217 0
-213 -218 0
-213 -219 0
-213 -220 0
-213 -221 0
-213 -222 0
-213 -223 0
-213 -224 0
-213 -225 0
-214 -215 0
-214 -216 0
-214 -217 0
-214 -218 0
-214 -219 0
-214 -220 0
-214 -221 0
-214 -222 0
-214 -223 0
-214 -224 0
-214 -225 0
-215 -216 0
-215 -217 0
-215 -218 0
-215 -219 0
-215 -220 0
-215 -221 0
-215 -222 0
-215 -223 0
-215 -224 0
-215 -225 0
-216 -217 0
-216 -218 0
-216 -219 0
-216 -220 0
-216 -221 0
-216 -222 0
-216 -223 0
-216 -224 0
-216 -225 0
-217 -218 0
-217 -219 0
-217 -220 0
-217 -221 0
-217 -222 0
-217 -223 0
-217 -224 0
-217 -225 0
-218 -219 0
-218 -220 0
-218 -221 0
-218 -222 0
-218 -223 0
-218 -224 0
-218 -225 0
-219 -220 0
-219 -221 0
-219 -222 0
-219 -223 0
-219 -224 0
-219 -225 0
-220 -221 0
-220 -222 0
-220 -223 0
-220 -224 0
-220 -225 0
-221 -222 0
-221 -223 0
-221 -224 0
-221 -225 0
-222 -223 0
-222 -224 0
-222 -225 0
-223 -224 0
-223 -225 0
-224 -225 0
-586 562 211 0
-587 563 212 0
-588 564 213 0
-589 565 0
-590 566 214 0
-591 567 215 0
-592 568 216 0
-593 569 0
-594 570 0
-595 571 217 0
-596 572 218 0
-597 573 0
-598 574 219 0
-599 575 220 0
-600 576 0
-601 577 221 0
-602 578 222 0
-603 579 223 0
-604 580 0
-605 581 224 0
-606 582 0
-607 583 225 0
-608 584 0
-609 585 0
-226 0
-227 0
-228 0
229 0
-230 0
-231 0
-232 0
233 0
234 0
-235 0
-236 0
237 0
-238 0
-239 0
240 0
-241 0
-242 0
-243 0
244 0
-245 0
246 0
-247 0
248 0
249 0
1 16 31 46 61 76 91 106 121 136 151 166 181 196 211 0
2 17 32 47 62 77 92 107 122 137 152 167 182 197 212 0
3 18 33 48 63 78 93 108 123 138 153 168 183 198 213 0
4 19 34 49 64 79 94 109 124 139 154 169 184 199 214 0
5 20 35 50 65 80 95 110 125 140 155 170 185 200 215 0
6 21 36 51 66 81 96 111 126 141 156 171 186 201 216 0
7 22 37 52 67 82 97 112 127 142 157 172 187 202 217 0
8 23 38 53 68 83 98 113 128 143 158 173 188 203 218 0
9 24 39 54 69 84 99 114 129 144 159 174 189 204 219 0
10 25 40 55 70 85 100 115 130 145 160 175 190 205 220 0
11 26 41 56 71 86 101 116 131 146 161 176 191 206 221 0
12 27 42 57 72 87 102 117 132 147 162 177 192 207 222 0
13 28 43 58 73 88 103 118 133 148 163 178 193 208 223 0
14 29 44 59 74 89 104 119 134 149 164 179 194 209 224 0
15 30 45 60 75 90 105 120 135 150 165 180 195 210 225 0
-1 0
-610 228 0
-610 241 0
-611 228 0
-611 241 0
-612 231 0
-612 232 0
-613 231 0
-613 232 0
-2 610 611 612 613 0
-614 227 0
-614 241 0
-615 227 0
-615 241 0
-616 231 0
-616 233 0
-617 231 0
-617 233 0
-3 614 615 616 617 0
-618 229 0
-618 246 0
-619 229 0
-619 246 0
-620 231 0
-620 236 0
-621 231 0
-621 236 0
-4 618 619 620 621 0
-622 227 0
-622 232 0
-623 227 0
-623 232 0
-624 228 0
-624 233 0
-625 228 0
-625 233 0
-626 229 0
-626 234 0
-627 229 0
-627 234 0
-628 230 0
-628 236 0
-629 230 0
-629 236 0
-5 622 623 624 625 626 627 628 629 0
-630 227 0
-630 231 0
-631 227 0
-631 231 0
-632 233 0
-632 241 0
-633 233 0
-633 241 0
-6 630 631 632 633 0
-7 0
-634 230 0
-634 231 0
-635 230 0
-635 231 0
-636 234 0
-636 246 0
-637 234 0
-637 246 0
-8 634 635 636 637 0
-638 239 0
-638 239 0
-9 638 0
-639 238 0
-639 239 0
-640 238 0
-640 239 0
-641 240 0
-641 244 0
-642 240 0
-642 244 0
-643 241 0
-643 243 0
-644 241 0
-644 243 0
-10 639 640 641 642 643 644 0
-645 227 0
-645 228 0
-646 227 0
-646 228 0
-647 232 0
-647 233 0
-648 232 0
-648 233 0
-649 239 0
-649 243 0
-650 239 0
-650 243 0
-651 240 0
-651 248 0
-652 240 0
-652 248 0
-11 645 646 647 648 649 650 651 652 0
-653 244 0
-653 247 0
-654 244 0
-654 247 0
-655 245 0
-655 246 0
-656 245 0
-656 246 0
-12 653 654 655 656 0
-657 239 0
-657 241 0
-658 239 0
-658 241 0
-659 244 0
-659 248 0
-660 244 0
-660 248 0
-13 657 658 659 660 0
-661 242 0
-661 246 0
-662 242 0
-662 246 0
-663 244 0
-663 249 0
-664 244 0
-664 249 0
-14 661 662 663 664 0
-665 242 0
-665 244 0
-666 242 0
-666 244 0
-667 246 0
-667 249 0
-668 246 0
-668 249 0
-15 665 666 667 668 0
-16 0
-669 252 0
-669 265 0
-670 252 0
-670 265 0
-671 255 0
-671 256 0
-672 255 0
-672 256 0
-17 669 670 671 672 0
-673 251 0
-673 265 0
-674 251 0
-674 265 0
-675 255 0
-675 257 0
-676 255 0
-676 257 0
-18 673 674 675 676 0
-677 253 0
-677 270 0
-678 253 0
-678 270 0
-679 255 0
-679 260 0
-680 255 0
-680 260 0
-19 677 678 679 680 0
-681 251 0
-681 256 0
-682 251 0
-682 256 0
-683 252 0
-683 257 0
-684 252 0
-684 257 0
-685 253 0
-685 258 0
-686 253 0
-686 258 0
-687 254 0
-687 260 0
-688 254 0
-688 260 0
-20 681 682 683 684 685 686 687 688 0
-689 251 0
-689 255 0
-690 251 0
-690 255 0
-691 257 0
-691 265 0
-692 257 0
-692 265 0
-21 689 690 691 692 0
-22 0
-693 254 0
-693 255 0
-694 254 0
-694 255 0
-695 258 0
-695 270 0
-696 258 0
-696 270 0
-23 693 694 695 696 0
-697 263 0
-697 263 0
-24 697 0
-698 262 0
-698 263 0
-699 262 0
-699 263 0
-700 264 0
-700 268 0
-701 264 0
-701 268 0
-702 265 0
-702 267 0
-703 265 0
-703 267 0
-25 698 699 700 701 702 703 0
-704 251 0
-704 252 0
-705 251 0
-705 252 0
-706 256 0
-706 257 0
-707 256 0
-707 257 0
-708 263 0
-708 267 0
-709 263 0
-709 267 0
-710 264 0
-710 272 0
-711 264 0
-711 272 0
-26 704 705 706 707 708 709 710 711 0
-712 268 0
-712 271 0
-713 268 0
-713 271 0
-714 269 0
-714 270 0
-715 269 0
-715 270 0
-27 712 713 714 715 0
-716 263 0
-716 265 0
-717 263 0
-717 265 0
-718 268 0
-718 272 0
-719 268 0
-719 272 0
-28 716 717 718 719 0
-720 266 0
-720 270 0
-721 266 0
-721 270 0
-722 268 0
-722 273 0
-723 268 0
-723 273 0
-29 720 721 722 723 0
-724 266 0
-724 268 0
-725 266 0
-725 268 0
-726 270 0
-726 273 0
-727 270 0
-727 273 0
-30 724 725 726 727 0
-31 0
-728 276 0
-728 289 0
-729 276 0
-729 289 0
-730 279 0
-730 280 0
-731 279 0
-731 280 0
-32 728 729 730 731 0
-732 275 0
-732 289 0
-733 275 0
-733 289 0
-734 279 0
-734 281 0
-735 279 0
-735 281 0
-33 732 733 734 735 0
-736 277 0
-736 294 0
-737 277 0
-737 294 0
-738 279 0
-738 284 0
-739 279 0
-739 284 0
-34 736 737 738 739 0
-740 275 0
-740 280 0
-741 275 0
-741 280 0
-742 276 0
-742 281 0
-743 276 0
-743 281 0
-744 277 0
-744 282 0
-745 277 0
-745 282 0
-746 278 0
-746 284 0
-747 278 0
-747 284 0
-35 740 741 742 743 744 745 746 747 0
-748 275 0
-748 279 0
-749 275 0
-749 279 0
-750 281 0
-750 289 0
-751 281 0
-751 289 0
-36 748 749 750 751 0
-37 0
-752 278 0
-752 279 0
-753 278 0
-753 279 0
-754 282 0
-754 294 0
-755 282 0
-755 294 0
-38 752 753 754 755 0
-756 287 0
-756 287 0
-39 756 0
-757 286 0
-757 287 0
-758 286 0
-758 287 0
-759 288 0
-759 292 0
-760 288 0
-760 292 0
-761 289 0
-761 291 0
-762 289 0
-762 291 0
-40 757 758 759 760 761 762 0
-763 275 0
-763 276 0
-764 275 0
-764 276 0
-765 280 0
-765 281 0
-766 280 0
-766 281 0
-767 287 0
-767 291 0
-768 287 0
-768 291 0
-769 288 0
-769 296 0
-770 288 0
-770 296 0
-41 763 764 765 766 767 768 769 770 0
-771 292 0
-771 295 0
-772 292 0
-772 295 0
-773 293 0
-773 294 0
-774 293 0
-774 294 0
-42 771 772 773 774 0
-775 287 0
-775 289 0
-776 287 0
-776 289 0
-777 292 0
-777 296 0
-778 292 0
-778 296 0
-43 775 776 777 778 0
-779 290 0
-779 294 0
-780 290 0
-780 294 0
-781 292 0
-781 297 0
-782 292 0
-782 297 0
-44 779 780 781 782 0
-783 290 0
-783 292 0
-784 290 0
-784 292 0
-785 294 0
-785 297 0
-786 294 0
-786 297 0
-45 783 784 785 786 0
-46 0
-787 300 0
-787 313 0
-788 300 0
-788 313 0
-789 303 0
-789 304 0
-790 303 0
-790 304 0
-47 787 788 789 790 0
-791 299 0
-791 313 0
-792 299 0
-792 313 0
-793 303 0
-793 305 0
-794 303 0
-794 305 0
-48 791 792 793 794 0
-795 301 0
-795 318 0
-796 301 0
-796 318 0
-797 303 0
-797 308 0
-798 303 0
-798 308 0
-49 795 796 797 798 0
-799 299 0
-799 304 0
-800 299 0
-800 304 0
-801 300 0
-801 305 0
-802 300 0
-802 305 0
-803 301 0
-803 306 0
-804 301 0
-804 306 0
-805 302 0
-805 308 0
-806 302 0
-806 308 0
-50 799 800 801 802 803 804 805 806 0
-807 299 0
-807 303 0
-808 299 0
-808 303 0
-809 305 0
-809 313 0
-810 305 0
-810 313 0
-51 807 808 809 810 0
-52 0
-811 302 0
-811 303 0
-812 302 0
-812 303 0
-813 306 0
-813 318 0
-814 306 0
-814 318 0
-53 811 812 813 814 0
-815 311 0
-815 311 0
-54 815 0
-816 310 0
-816 311 0
-817 310 0
-817 311 0
-818 312 0
-818 316 0
-819 312 0
-819 316 0
-820 313 0
-820 315 0
-821 313 0
-821 315 0
-55 816 817 818 819 820 821 0
-822 299 0
-822 300 0
-823 299 0
-823 300 0
-824 304 0
-824 305 0
-825 304 0
-825 305 0
-826 311 0
-826 315 0
-827 311 0
-827 315 0
-828 312 0
-828 320 0
-829 312 0
-829 320 0
-56 822 823 824 825 826 827 828 829 0
-830 316 0
-830 319 0
-831 316 0
-831 319 0
-832 317 0
-832 318 0
-833 317 0
-833 318 0
-57 830 831 832 833 0
-834 311 0
-834 313 0
-835 311 0
-835 313 0
-836 316 0
-836 320 0
-837 316 0
-837 320 0
-58 834 835 836 837 0
-838 314 0
-838 318 0
-839 314 0
-839 318 0
-840 316 0
-840 321 0
-841 316 0
-841 321 0
-59 838 839 840 841 0
-842 314 0
-842 316 0
-843 314 0
-843 316 0
-844 318 0
-844 321 0
-845 318 0
-845 321 0
-60 842 843 844 845 0
-61 0
-846 324 0
-846 337 0
-847 324 0
-847 337 0
-848 327 0
-848 328 0
-849 327 0
-849 328 0
-62 846 847 848 849 0
-850 323 0
-850 337 0
-851 323 0
-851 337 0
-852 327 0
-852 329 0
-853 327 0
-853 329 0
-63 850 851 852 853 0
-854 325 0
-854 342 0
-855 325 0
-855 342 0
-856 327 0
-856 332 0
-857 327 0
-857 332 0
-64 854 855 856 857 0
-858 323 0
-858 328 0
-859 323 0
-859 328 0
-860 324 0
-860 329 0
-861 324 0
-861 329 0
-862 325 0
-862 330 0
-863 325 0
-863 330 0
-864 326 0
-864 332 0
-865 326 0
-865 332 0
-65 858 859 860 861 862 863 864 865 0
-866 323 0
-866 327 0
-867 323 0
-867 327 0
-868 329 0
-868 337 0
-869 329 0
-869 337 0
-66 866 867 868 869 0
-67 0
-870 326 0
-870 327 0
-871 326 0
-871 327 0
-872 330 0
-872 342 0
-873 330 0
-873 342 0
-68 870 871 872 873 0
-874 335 0
-874 335 0
-69 874 0
-875 334 0
-875 335 0
-876 334 0
-876 335 0
-877 336 0
-877 340 0
-878 336 0
-878 340 0
-879 337 0
-879 339 0
-880 337 0
-880 339 0
-70 875 876 877 878 879 880 0
-881 323 0
-881 324 0
-882 323 0
-882 324 0
-883 328 0
-883 329 0
-884 328 0
-884 329 0
-885 335 0
-885 339 0
-886 335 0
-886 339 0
-887 336 0
-887 344 0
-888 336 0
-888 344 0
-71 881 882 883 884 885 886 887 888 0
-889 340 0
-889 343 0
-890 340 0
-890 343 0
-891 341 0
-891 342 0
-892 341 0
-892 342 0
-72 889 890 891 892 0
-893 335 0
-893 337 0
-894 335 0
-894 337 0
-895 340 0
-895 344 0
-896 340 0
-896 344 0
-73 893 894 895 896 0
-897 338 0
-897 342 0
-898 338 0
-898 342 0
-899 340 0
-899 345 0
-900 340 0
-900 345 0
-74 897 898 899 900 0
-901 338 0
-901 340 0
-902 338 0
-902 340 0
-903 342 0
-903 345 0
-904 342 0
-904 345 0
-75 901 902 903 904 0
-76 0
-905 348 0
-905 361 0
-906 348 0
-906 361 0
-907 351 0
-907 352 0
-908 351 0
-908 352 0
-77 905 906 907 908 0
-909 347 0
-909 361 0
-910 347 0
-910 361 0
-911 351 0
-911 353 0
-912 351 0
-912 353 0
-78 909 910 911 912 0
-913 349 0
-913 366 0
-914 349 0
-914 366 0
-915 351 0
-915 356 0
-916 351 0
-916 356 0
-79 913 914 915 916 0
-917 347 0
-917 352 0
-918 347 0
-918 352 0
-919 348 0
-919 353 0
-920 348 0
-920 353 0
-921 349 0
-921 354 0
-922 349 0
-922 354 0
-923 350 0
-923 356 0
-924 350 0
-924 356 0
-80 917 918 919 920 921 922 923 924 0
-925 347 0
-925 351 0
-926 347 0
-926 351 0
-927 353 0
-927 361 0
-928 353 0
-928 361 0
-81 925 926 927 928 0
-82 0
-929 350 0
-929 351 0
-930 350 0
-930 351 0
-931 354 0
-931 366 0
-932 354 0
-932 366 0
-83 929 930 931 932 0
-933 359 0
-933 359 0
-84 933 0
-934 358 0
-934 359 0
-935 358 0
-935 359 0
-936 360 0
-936 364 0
-937 360 0
-937 364 0
-938 361 0
-938 363 0
-939 361 0
-939 363 0
-85 934 935 936 937 938 939 0
-940 347 0
-940 348 0
-941 347 0
-941 348 0
-942 352 0
-942 353 0
-943 352 0
-943 353 0
-944 359 0
-944 363 0
-945 359 0
-945 363 0
-946 360 0
-946 368 0
-947 360 0
-947 368 0
-86 940 941 942 943 944 945 946 947 0
-948 364 0
-948 367 0
-949 364 0
-949 367 0
-950 365 0
-950 366 0
-951 365 0
-951 366 0
-87 948 949 950 951 0
-952 359 0
-952 361 0
-953 359 0
-953 361 0
-954 364 0
-954 368 0
-955 364 0
-955 368 0
-88 952 953 954 955 0
-956 362 0
-956 366 0
-957 362 0
-957 366 0
-958 364 0
-958 369 0
-959 364 0
-959 369 0
-89 956 957 958 959 0
-960 362 0
-960 364 0
-961 362 0
-961 364 0
-962 366 0
-962 369 0
-963 366 0
-963 369 0
-90 960 961 962 963 0
-91 0
-964 372 0
-964 385 0
-965 372 0
-965 385 0
-966 375 0
-966 376 0
-967 375 0
-967 376 0
-92 964 965 966 967 0
-968 371 0
-968 385 0
-969 371 0
-969 385 0
-970 375 0
-970 377 0
-971 375 0
-971 377 0
-93 968 969 970 971 0
-972 373 0
-972 390 0
-973 373 0
-973 390 0
-974 375 0
-974 380 0
-975 375 0
-975 380 0
-94 972 973 974 975 0
-976 371 0
-976 376 0
-977 371 0
-977 376 0
-978 372 0
-978 377 0
-979 372 0
-979 377 0
-980 373 0
-980 378 0
-981 373 0
-981 378 0
-982 374 0
-982 380 0
-983 374 0
-983 380 0
-95 976 977 978 979 980 981 982 983 0
-984 371 0
-984 375 0
-985 371 0
-985 375 0
-986 377 0
-986 385 0
-987 377 0
-987 385 0
-96 984 985 986 987 0
-97 0
-988 374 0
-988 375 0
-989 374 0
-989 375 0
-990 378 0
-990 390 0
-991 378 0
-991 390 0
-98 988 989 990 991 0
-992 383 0
-992 383 0
-99 992 0
-993 382 0
-993 383 0
-994 382 0
-994 383 0
-995 384 0
-995 388 0
-996 384 0
-996 388 0
-997 385 0
-997 387 0
-998 385 0
-998 387 0
-100 993 994 995 996 997 998 0
-999 371 0
-999 372 0
-1000 371 0
-1000 372 0
-1001 376 0
-1001 377 0
-1002 376 0
-1002 377 0
-1003 383 0
-1003 387 0
-1004 383 0
-1004 387 0
-1005 384 0
-1005 392 0
-1006 384 0
-1006 392 0
-101 999 1000 1001 1002 1003 1004 1005 1006 0
-1007 388 0
-1007 391 0
-1008 388 0
-1008 391 0
-1009 389 0
-1009 390 0
-1010 389 0
-1010 390 0
-102 1007 1008 1009 1010 0
-1011 383 0
-1011 385 0
-1012 383 0
-1012 385 0
-1013 388 0
-1013 392 0
-1014 388 0
-1014 392 0
-103 1011 1012 1013 1014 0
-1015 386 0
-1015 390 0
-1016 386 0
-1016 390 0
-1017 388 0
-1017 393 0
-1018 388 0
-1018 393 0
-104 1015 1016 1017 1018 0
-1019 386 0
-1019 388 0
-1020 386 0
-1020 388 0
-1021 390 0
-1021 393 0
-1022 390 0
-1022 393 0
-105 1019 1020 1021 1022 0
-106 0
-1023 396 0
-1023 409 0
-1024 396 0
-1024 409 0
-1025 399 0
-1025 400 0
-1026 399 0
-1026 400 0
-107 1023 1024 1025 1026 0
-1027 395 0
-1027 409 0
-1028 395 0
-1028 409 0
-1029 399 0
-1029 401 0
-1030 399 0
-1030 401 0
-108 1027 1028 1029 1030 0
-1031 397 0
-1031 414 0
-1032 397 0
-1032 414 0
-1033 399 0
-1033 404 0
-1034 399 0
-1034 404 0
-109 1031 1032 1033 1034 0
-1035 395 0
-1035 400 0
-1036 395 0
-1036 400 0
-1037 396 0
-1037 401 0
-1038 396 0
-1038 401 0
-1039 397 0
-1039 402 0
-1040 397 0
-1040 402 0
-1041 398 0
-1041 404 0
-1042 398 0
-1042 404 0
-110 1035 1036 1037 1038 1039 1040 1041 1042 0
-1043 395 0
-1043 399 0
-1044 395 0
-1044 399 0
-1045 401 0
-1045 409 0
-1046 401 0
-1046 409 0
-111 1043 1044 1045 1046 0
-112 0
-1047 398 0
-1047 399 0
-1048 398 0
-1048 399 0
-1049 402 0
-1049 414 0
-1050 402 0
-1050 414 0
-113 1047 1048 1049 1050 0
-1051 407 0
-1051 407 0
-114 1051 0
-1052 406 0
-1052 407 0
-1053 406 0
-1053 407 0
-1054 408 0
-1054 412 0
-1055 408 0
-1055 412 0
-1056 409 0
-1056 411 0
-1057 409 0
-1057 411 0
-115 1052 1053 1054 1055 1056 1057 0
-1058 395 0
-1058 396 0
-1059 395 0
-1059 396 0
-1060 400 0
-1060 401 0
-1061 400 0
-1061 401 0
-1062 407 0
-1062 411 0
-1063 407 0
-1063 411 0
-1064 408 0
-1064 416 0
-1065 408 0
-1065 416 0
-116 1058 1059 1060 1061 1062 1063 1064 1065 0
-1066 412 0
-1066 415 0
-1067 412 0
-1067 415 0
-1068 413 0
-1068 414 0
-1069 413 0
-1069 414 0
-117 1066 1067 1068 1069 0
-1070 407 0
-1070 409 0
-1071 407 0
-1071 409 0
-1072 412 0
-1072 416 0
-1073 412 0
-1073 416 0
-118 1070 1071 1072 1073 0
-1074 410 0
-1074 414 0
-1075 410 0
-1075 414 0
-1076 412 0
-1076 417 0
-1077 412 0
-1077 417 0
-119 1074 1075 1076 1077 0
-1078 410 0
-1078 412 0
-1079 410 0
-1079 412 0
-1080 414 0
-1080 417 0
-1081 414 0
-1081 417 0
-120 1078 1079 1080 1081 0
-121 0
-1082 420 0
-1082 433 0
-1083 420 0
-1083 433 0
-1084 423 0
-1084 424 0
-1085 423 0
-1085 424 0
-122 1082 1083 1084 1085 0
-1086 419 0
-1086 433 0
-1087 419 0
-1087 433 0
-1088 423 0
-1088 425 0
-1089 423 0
-1089 425 0
-123 1086 1087 1088 1089 0
-1090 421 0
-1090 438 0
-1091 421 0
-1091 438 0
-1092 423 0
-1092 428 0
-1093 423 0
-1093 428 0
-124 1090 1091 1092 1093 0
-1094 419 0
-1094 424 0
-1095 419 0
-1095 424 0
-1096 420 0
-1096 425 0
-1097 420 0
-1097 425 0
-1098 421 0
-1098 426 0
-1099 421 0
-1099 426 0
-1100 422 0
-1100 428 0
-1101 422 0
-1101 428 0
-125 1094 1095 1096 1097 1098 1099 1100 1101 0
-1102 419 0
-1102 423 0
-1103 419 0
-1103 423 0
-1104 425 0
-1104 433 0
-1105 425 0
-1105 433 0
-126 1102 1103 1104 1105 0
-127 0
-1106 422 0
-1106 423 0
-1107 422 0
-1107 423 0
-1108 426 0
-1108 438 0
-1109 426 0
-1109 438 0
-128 1106 1107 1108 1109 0
-1110 431 0
-1110 431 0
-129 1110 0
-1111 430 0
-1111 431 0
-1112 430 0
-1112 431 0
-1113 432 0
-1113 436 0
-1114 432 0
-1114 436 0
-1115 433 0
-1115 435 0
-1116 433 0
-1116 435 0
-130 1111 1112 1113 1114 1115 1116 0
-1117 419 0
-1117 420 0
-1118 419 0
-1118 420 0
-1119 424 0
-1119 425 0
-1120 424 0
-1120 425 0
-1121 431 0
-1121 435 0
-1122 431 0
-1122 435 0
-1123 432 0
-1123 440 0
-1124 432 0
-1124 440 0
-131 1117 1118 1119 1120 1121 1122 1123 1124 0
-1125 436 0
-1125 439 0
-1126 436 0
-1126 439 0
-1127 437 0
-1127 438 0
-1128 437 0
-1128 438 0
-132 1125 1126 1127 1128 0
-1129 431 0
-1129 433 0
-1130 431 0
-1130 433 0
-1131 436 0
-1131 440 0
-1132 436 0
-1132 440 0
-133 1129 1130 1131 1132 0
-1133 434 0
-1133 438 0
-1134 434 0
-1134 438 0
-1135 436 0
-1135 441 0
-1136 436 0
-1136 441 0
-134 1133 1134 1135 1136 0
-1137 434 0
-1137 436 0
-1138 434 0
-1138 436 0
-1139 438 0
-1139 441 0
-1140 438 0
-1140 441 0
-135 1137 1138 1139 1140 0
-136 0
-1141 444 0
-1141 457 0
-1142 444 0
-1142 457 0
-1143 447 0
-1143 448 0
-1144 447 0
-1144 448 0
-137 1141 1142 1143 1144 0
-1145 443 0
-1145 457 0
-1146 443 0
-1146 457 0
-1147 447 0
-1147 449 0
-1148 447 0
-1148 449 0
-138 1145 1146 1147 1148 0
-1149 445 0
-1149 462 0
-1150 445 0
-1150 462 0
-1151 447 0
-1151 452 0
-1152 447 0
-1152 452 0
-139 1149 1150 1151 1152 0
-1153 443 0
-1153 448 0
-1154 443 0
-1154 448 0
-1155 444 0
-1155 449 0
-1156 444 0
-1156 449 0
-1157 445 0
-1157 450 0
-1158 445 0
-1158 450 0
-1159 446 0
-1159 452 0
-1160 446 0
-1160 452 0
-140 1153 1154 1155 1156 1157 1158 1159 1160 0
-1161 443 0
-1161 447 0
-1162 443 0
-1162 447 0
-1163 449 0
-1163 457 0
-1164 449 0
-1164 457 0
-141 1161 1162 1163 1164 0
-142 0
-1165 446 0
-1165 447 0
-1166 446 0
-1166 447 0
-1167 450 0
-1167 462 0
-1168 450 0
-1168 462 0
-143 1165 1166 1167 1168 0
-1169 455 0
-1169 455 0
-144 1169 0
-1170 454 0
-1170 455 0
-1171 454 0
-1171 455 0
-1172 456 0
-1172 460 0
-1173 456 0
-1173 460 0
-1174 457 0
-1174 459 0
-1175 457 0
-1175 459 0
-145 1170 1171 1172 1173 1174 1175 0
-1176 443 0
-1176 444 0
-1177 443 0
-1177 444 0
-1178 448 0
-1178 449 0
-1179 448 0
-1179 449 0
-1180 455 0
-1180 459 0
-1181 455 0
-1181 459 0
-1182 456 0
-1182 464 0
-1183 456 0
-1183 464 0
-146 1176 1177 1178 1179 1180 1181 1182 1183 0
-1184 460 0
-1184 463 0
-1185 460 0
-1185 463 0
-1186 461 0
-1186 462 0
-1187 461 0
-1187 462 0
-147 1184 1185 1186 1187 0
-1188 455 0
-1188 457 0
-1189 455 0
-1189 457 0
-1190 460 0
-1190 464 0
-1191 460 0
-1191 464 0
-148 1188 1189 1190 1191 0
-1192 458 0
-1192 462 0
-1193 458 0
-1193 462 0
-1194 460 0
-1194 465 0
-1195 460 0
-1195 465 0
-149 1192 1193 1194 1195 0
-1196 458 0
-1196 460 0
-1197 458 0
-1197 460 0
-1198 462 0
-1198 465 0
-1199 462 0
-1199 465 0
-150 1196 1197 1198 1199 0
-151 0
-1200 468 0
-1200 481 0
-1201 468 0
-1201 481 0
-1202 471 0
-1202 472 0
-1203 471 0
-1203 472 0
-152 1200 1201 1202 1203 0
-1204 467 0
-1204 481 0
-1205 467 0
-1205 481 0
-1206 471 0
-1206 473 0
-1207 471 0
-1207 473 0
-153 1204 1205 1206 1207 0
-1208 469 0
-1208 486 0
-1209 469 0
-1209 486 0
-1210 471 0
-1210 476 0
-1211 471 0
-1211 476 0
-154 1208 1209 1210 1211 0
-1212 467 0
-1212 472 0
-1213 467 0
-1213 472 0
-1214 468 0
-1214 473 0
-1215 468 0
-1215 473 0
-1216 469 0
-1216 474 0
-1217 469 0
-1217 474 0
-1218 470 0
-1218 476 0
-1219 470 0
-1219 476 0
-155 1212 1213 1214 1215 1216 1217 1218 1219 0
-1220 467 0
-1220 471 0
-1221 467 0
-1221 471 0
-1222 473 0
-1222 481 0
-1223 473 0
-1223 481 0
-156 1220 1221 1222 1223 0
-157 0
-1224 470 0
-1224 471 0
-1225 470 0
-1225 471 0
-1226 474 0
-1226 486 0
-1227 474 0
-1227 486 0
-158 1224 1225 1226 1227 0
-1228 479 0
-1228 479 0
-159 1228 0
-1229 478 0
-1229 479 0
-1230 478 0
-1230 479 0
-1231 480 0
-1231 484 0
-1232 480 0
-1232 484 0
-1233 481 0
-1233 483 0
-1234 481 0
-1234 483 0
-160 1229 1230 1231 1232 1233 1234 0
-1235 467 0
-1235 468 0
-1236 467 0
-1236 468 0
-1237 472 0
-1237 473 0
-1238 472 0
-1238 473 0
-1239 479 0
-1239 483 0
-1240 479 0
-1240 483 0
-1241 480 0
-1241 488 0
-1242 480 0
-1242 488 0
-161 1235 1236 1237 1238 1239 1240 1241 1242 0
-1243 484 0
-1243 487 0
-1244 484 0
-1244 487 0
-1245 485 0
-1245 486 0
-1246 485 0
-1246 486 0
-162 1243 1244 1245 1246 0
-1247 479 0
-1247 481 0
-1248 479 0
-1248 481 0
-1249 484 0
-1249 488 0
-1250 484 0
-1250 488 0
-163 1247 1248 1249 1250 0
-1251 482 0
-1251 486 0
-1252 482 0
-1252 486 0
-1253 484 0
-1253 489 0
-1254 484 0
-1254 489 0
-164 1251 1252 1253 1254 0
-1255 482 0
-1255 484 0
-1256 482 0
-1256 484 0
-1257 486 0
-1257 489 0
-1258 486 0
-1258 489 0
-165 1255 1256 1257 1258 0
-166 0
-1259 492 0
-1259 505 0
-1260 492 0
-1260 505 0
-1261 495 0
-1261 496 0
-1262 495 0
-1262 496 0
-167 1259 1260 1261 1262 0
-1263 491 0
-1263 505 0
-1264 491 0
-1264 505 0
-1265 495 0
-1265 497 0
-1266 495 0
-1266 497 0
-168 1263 1264 1265 1266 0
-1267 493 0
-1267 510 0
-1268 493 0
-1268 510 0
-1269 495 0
-1269 500 0
-1270 495 0
-1270 500 0
-169 1267 1268 1269 1270 0
-1271 491 0
-1271 496 0
-1272 491 0
-1272 496 0
-1273 492 0
-1273 497 0
-1274 492 0
-1274 497 0
-1275 493 0
-1275 498 0
-1276 493 0
-1276 498 0
-1277 494 0
-1277 500 0
-1278 494 0
-1278 500 0
-170 1271 1272 1273 1274 1275 1276 1277 1278 0
-1279 491 0
-1279 495 0
-1280 491 0
-1280 495 0
-1281 497 0
-1281 505 0
-1282 497 0
-1282 505 0
-171 1279 1280 1281 1282 0
-172 0
-1283 494 0
-1283 495 0
-1284 494 0
-1284 495 0
-1285 498 0
-1285 510 0
-1286 498 0
-1286 510 0
-173 1283 1284 1285 1286 0
-1287 503 0
-1287 503 0
-174 1287 0
-1288 502 0
-1288 503 0
-1289 502 0
-1289 503 0
-1290 504 0
-1290 508 0
-1291 504 0
-1291 508 0
-1292 505 0
-1292 507 0
-1293 505 0
-1293 507 0
-175 1288 1289 1290 1291 1292 1293 0
-1294 491 0
-1294 492 0
-1295 491 0
-1295 492 0
-1296 496 0
-1296 497 0
-1297 496 0
-1297 497 0
-1298 503 0
-1298 507 0
-1299 503 0
-1299 507 0
-1300 504 0
-1300 512 0
-1301 504 0
-1301 512 0
-176 1294 1295 1296 1297 1298 1299 1300 1301 0
-1302 508 0
-1302 511 0
-1303 508 0
-1303 511 0
-1304 509 0
-1304 510 0
-1305 509 0
-1305 510 0
-177 1302 1303 1304 1305 0
-1306 503 0
-1306 505 0
-1307 503 0
-1307 505 0
-1308 508 0
-1308 512 0
-1309 508 0
-1309 512 0
-178 1306 1307 1308 1309 0
-1310 506 0
-1310 510 0
-1311 506 0
-1311 510 0
-1312 508 0
-1312 513 0
-1313 508 0
-1313 513 0
-179 1310 1311 1312 1313 0
-1314 506 0
-1314 508 0
-1315 506 0
-1315 508 0
-1316 510 0
-1316 513 0
-1317 510 0
-1317 513 0
-180 1314 1315 1316 1317 0
-181 0
-1318 516 0
-1318 529 0
-1319 516 0
-1319 529 0
-1320 519 0
-1320 520 0
-1321 519 0
-1321 520 0
-182 1318 1319 1320 1321 0
-1322 515 0
-1322 529 0
-1323 515 0
-1323 529 0
-1324 519 0
-1324 521 0
-1325 519 0
-1325 521 0
-183 1322 1323 1324 1325 0
-1326 517 0
-1326 534 0
-1327 517 0
-1327 534 0
-1328 519 0
-1328 524 0
-1329 519 0
-1329 524 0
-184 1326 1327 1328 1329 0
-1330 515 0
-1330 520 0
-1331 515 0
-1331 520 0
-1332 516 0
-1332 521 0
-1333 516 0
-1333 521 0
-1334 517 0
-1334 522 0
-1335 517 0
-1335 522 0
-1336 518 0
-1336 524 0
-1337 518 0
-1337 524 0
-185 1330 1331 1332 1333 1334 1335 1336 1337 0
-1338 515 0
-1338 519 0
-1339 515 0
-1339 519 0
-1340 521 0
-1340 529 0
-1341 521 0
-1341 529 0
-186 1338 1339 1340 1341 0
-187 0
-1342 518 0
-1342 519 0
-1343 518 0
-1343 519 0
-1344 522 0
-1344 534 0
-1345 522 0
-1345 534 0
-188 1342 1343 1344 1345 0
-1346 527 0
-1346 527 0
-189 1346 0
-1347 526 0
-1347 527 0
-1348 526 0
-1348 527 0
-1349 528 0
-1349 532 0
-1350 528 0
-1350 532 0
-1351 529 0
-1351 531 0
-1352 529 0
-1352 531 0
-190 1347 1348 1349 1350 1351 1352 0
-1353 515 0
-1353 516 0
-1354 515 0
-1354 516 0
-1355 520 0
-1355 521 0
-1356 520 0
-1356 521 0
-1357 527 0
-1357 531 0
-1358 527 0
-1358 531 0
-1359 528 0
-1359 536 0
-1360 528 0
-1360 536 0
-191 1353 1354 1355 1356 1357 1358 1359 1360 0
-1361 532 0
-1361 535 0
-1362 532 0
-1362 535 0
-1363 533 0
-1363 534 0
-1364 533 0
-1364 534 0
-192 1361 1362 1363 1364 0
-1365 527 0
-1365 529 0
-1366 527 0
-1366 529 0
-1367 532 0
-1367 536 0
-1368 532 0
-1368 536 0
-193 1365 1366 1367 1368 0
-1369 530 0
-1369 534 0
-1370 530 0
-1370 534 0
-1371 532 0
-1371 537 0
-1372 532 0
-1372 537 0
-194 1369 1370 1371 1372 0
-1373 530 0
-1373 532 0
-1374 530 0
-1374 532 0
-1375 534 0
-1375 537 0
-1376 534 0
-1376 537 0
-195 1373 1374 1375 1376 0
-196 0
-1377 540 0
-1377 553 0
-1378 540 0
-1378 553 0
-1379 543 0
-1379 544 0
-1380 543 0
-1380 544 0
-197 1377 1378 1379 1380 0
-1381 539 0
-1381 553 0
-1382 539 0
-1382 553 0
-1383 543 0
-1383 545 0
-1384 543 0
-1384 545 0
-198 1381 1382 1383 1384 0
-1385 541 0
-1385 558 0
-1386 541 0
-1386 558 0
-1387 543 0
-1387 548 0
-1388 543 0
-1388 548 0
-199 1385 1386 1387 1388 0
-1389 539 0
-1389 544 0
-1390 539 0
-1390 544 0
-1391 540 0
-1391 545 0
-1392 540 0
-1392 545 0
-1393 541 0
-1393 546 0
-1394 541 0
-1394 546 0
-1395 542 0
-1395 548 0
-1396 542 0
-1396 548 0
-200 1389 1390 1391 1392 1393 1394 1395 1396 0
-1397 539 0
-1397 543 0
-1398 539 0
-1398 543 0
-1399 545 0
-1399 553 0
-1400 545 0
-1400 553 0
-201 1397 1398 1399 1400 0
-202 0
-1401 542 0
-1401 543 0
-1402 542 0
-1402 543 0
-1403 546 0
-1403 558 0
-1404 546 0
-1404 558 0
-203 1401 1402 1403 1404 0
-1405 551 0
-1405 551 0
-204 1405 0
-1406 550 0
-1406 551 0
-1407 550 0
-1407 551 0
-1408 552 0
-1408 556 0
-1409 552 0
-1409 556 0
-1410 553 0
-1410 555 0
-1411 553 0
-1411 555 0
-205 1406 1407 1408 1409 1410 1411 0
-1412 539 0
-1412 540 0
-1413 539 0
-1413 540 0
-1414 544 0
-1414 545 0
-1415 544 0
-1415 545 0
-1416 551 0
-1416 555 0
-1417 551 0
-1417 555 0
-1418 552 0
-1418 560 0
-1419 552 0
-1419 560 0
-206 1412 1413 1414 1415 1416 1417 1418 1419 0
-1420 556 0
-1420 559 0
-1421 556 0
-1421 559 0
-1422 557 0
-1422 558 0
-1423 557 0
-1423 558 0
-207 1420 1421 1422 1423 0
-1424 551 0
-1424 553 0
-1425 551 0
-1425 553 0
-1426 556 0
-1426 560 0
-1427 556 0
-1427 560 0
-208 1424 1425 1426 1427 0
-1428 554 0
-1428 558 0
-1429 554 0
-1429 558 0
-1430 556 0
-1430 561 0
-1431 556 0
-1431 561 0
-209 1428 1429 1430 1431 0
-1432 554 0
-1432 556 0
-1433 554 0
-1433 556 0
-1434 558 0
-1434 561 0
-1435 558 0
-1435 561 0
-210 1432 1433 1434 1435 0
-211 0
-1436 564 0
-1436 577 0
-1437 564 0
-1437 577 0
-1438 567 0
-1438 568 0
-1439 567 0
-1439 568 0
-212 1436 1437 1438 1439 0
-1440 563 0
-1440 577 0
-1441 563 0
-1441 577 0
-1442 567 0
-1442 569 0
-1443 567 0
-1443 569 0
-213 1440 1441 1442 1443 0
-1444 565 0
-1444 582 0
-1445 565 0
-1445 582 0
-1446 567 0
-1446 572 0
-1447 567 0
-1447 572 0
-214 1444 1445 1446 1447 0
-1448 563 0
-1448 568 0
-1449 563 0
-1449 568 0
-1450 564 0
-1450 569 0
-1451 564 0
-1451 569 0
-1452 565 0
-1452 570 0
-1453 565 0
-1453 570 0
-1454 566 0
-1454 572 0
-1455 566 0
-1455 572 0
-215 1448 1449 1450 1451 1452 1453 1454 1455 0
-1456 563 0
-1456 567 0
-1457 563 0
-1457 567 0
-1458 569 0
-1458 577 0
-1459 569 0
-1459 577 0
-216 1456 1457 1458 1459 0
-217 0
-1460 566 0
-1460 567 0
-1461 566 0
-1461 567 0
-1462 570 0
-1462 582 0
-1463 570 0
-1463 582 0
-218 1460 1461 1462 1463 0
-1464 575 0
-1464 575 0
-219 1464 0
-1465 574 0
-1465 575 0
-1466 574 0
-1466 575 0
-1467 576 0
-1467 580 0
-1468 576 0
-1468 580 0
-1469 577 0
-1469 579 0
-1470 577 0
-1470 579 0
-220 1465 1466 1467 1468 1469 1470 0
-1471 563 0
-1471 564 0
-1472 563 0
-1472 564 0
-1473 568 0
-1473 569 0
-1474 568 0
-1474 569 0
-1475 575 0
-1475 579 0
-1476 575 0
-1476 579 0
-1477 576 0
-1477 584 0
-1478 576 0
-1478 584 0
-221 1471 1472 1473 1474 1475 1476 1477 1478 0
-1479 580 0
-1479 583 0
-1480 580 0
-1480 583 0
-1481 581 0
-1481 582 0
-1482 581 0
-1482 582 0
-222 1479 1480 1481 1482 0
-1483 575 0
-1483 577 0
-1484 575 0
-1484 577 0
-1485 580 0
-1485 584 0
-1486 580 0
-1486 584 0
-223 1483 1484 1485 1486 0
-1487 578 0
-1487 582 0
-1488 578 0
-1488 582 0
-1489 580 0
-1489 585 0
-1490 580 0
-1490 585 0
-224 1487 1488 1489 1490 0
-1491 578 0
-1491 580 0
-1492 578 0
-1492 580 0
-1493 582 0
-1493 585 0
-1494 582 0
-1494 585 0
-225 1491 1492 1493 1494 0
