p cnf 1509 3999
-1 -2 0
-1 -3 0
-1 -4 0
-1 -5 0
-1 -6 0
-1 -7 0
-1 -8 0
-1 -9 0
-1 -10 0
-1 -11 0
-1 -12 0
-1 -13 0
-1 -14 0
-1 -15 0
-2 -3 0
-2 -4 0
-2 -5 0
-2 -6 0
-2 -7 0
-2 -8 0
-2 -9 0
-2 -10 0
-2 -11 0
-2 -12 0
-2 -13 0
-2 -14 0
-2 -15 0
-3 -4 0
-3 -5 0
-3 -6 0
-3 -7 0
-3 -8 0
-3 -9 0
-3 -10 0
-3 -11 0
-3 -12 0
-3 -13 0
-3 -14 0
-3 -15 0
-4 -5 0
-4 -6 0
-4 -7 0
-4 -8 0
-4 -9 0
-4 -10 0
-4 -11 0
-4 -12 0
-4 -13 0
-4 -14 0
-4 -15 0
-5 -6 0
-5 -7 0
-5 -8 0
-5 -9 0
-5 -10 0
-5 -11 0
-5 -12 0
-5 -13 0
-5 -14 0
-5 -15 0
-6 -7 0
-6 -8 0
-6 -9 0
-6 -10 0
-6 -11 0
-6 -12 0
-6 -13 0
-6 -14 0
-6 -15 0
-7 -8 0
-7 -9 0
-7 -10 0
-7 -11 0
-7 -12 0
-7 -13 0
-7 -14 0
-7 -15 0
-8 -9 0
-8 -10 0
-8 -11 0
-8 -12 0
-8 -13 0
-8 -14 0
-8 -15 0
-9 -10 0
-9 -11 0
-9 -12 0
-9 -13 0
-9 -14 0
-9 -15 0
-10 -11 0
-10 -12 0
-10 -13 0
-10 -14 0
-10 -15 0
-11 -12 0
-11 -13 0
-11 -14 0
-11 -15 0
-12 -13 0
-12 -14 0
-12 -15 0
-13 -14 0
-13 -15 0
-14 -15 0
-250 226 1 0
-251 227 2 0
-252 228 3 0
-253 229 4 0
-254 230 0
-255 231 5 0
-256 232 6 0
-257 233 7 0
-258 234 0
-259 235 0
-260 236 8 0
-261 237 9 0
-262 238 0
-263 239 10 0
-264 240 0
-265 241 11 0
-266 242 12 0
-267 243 13 0
-268 244 0
-269 245 14 0
-270 246 0
-271 247 15 0
-272 248 0
-273 249 0
-16 -17 0
-16 -18 0
-16 -19 0
-16 -20 0
-16 -21 0
-16 -22 0
-16 -23 0
-16 -24 0
-16 -25 0
-16 -26 0
-16 -27 0
-16 -28 0
-16 -29 0
-16 -30 0
-17 -18 0
-17 -19 0
-17 -20 0
-17 -21 0
-17 -22 0
-17 -23 0
-17 -24 0
-17 -25 0
-17 -26 0
-17 -27 0
-17 -28 0
-17 -29 0
-17 -30 0
-18 -19 0
-18 -20 0
-18 -21 0
-18 -22 0
-18 -23 0
-18 -24 0
-18 -25 0
-18 -26 0
-18 -27 0
-18 -28 0
-18 -29 0
-18 -30 0
-19 -20 0
-19 -21 0
-19 -22 0
-19 -23 0
-19 -24 0
-19 -25 0
-19 -26 0
-19 -27 0
-19 -28 0
-19 -29 0
-19 -30 0
-20 -21 0
-20 -22 0
-20 -23 0
-20 -24 0
-20 -25 0
-20 -26 0
-20 -27 0
-20 -28 0
-20 -29 0
-20 -30 0
-21 -22 0
-21 -23 0
-21 -24 0
-21 -25 0
-21 -26 0
-21 -27 0
-21 -28 0
-21 -29 0
-21 -30 0
-22 -23 0
-22 -24 0
-22 -25 0
-22 -26 0
-22 -27 0
-22 -28 0
-22 -29 0
-22 -30 0
-23 -24 0
-23 -25 0
-23 -26 0
-23 -27 0
-23 -28 0
-23 -29 0
-23 -30 0
-24 -25 0
-24 -26 0
-24 -27 0
-24 -28 0
-24 -29 0
-24 -30 0
-25 -26 0
-25 -27 0
-25 -28 0
-25 -29 0
-25 -30 0
-26 -27 0
-26 -28 0
-26 -29 0
-26 -30 0
-27 -28 0
-27 -29 0
-27 -30 0
-28 -29 0
-28 -30 0
-29 -30 0
-274 250 16 0
-275 251 17 0
-276 252 18 0
-277 253 19 0
-278 254 0
-279 255 20 0
-280 256 21 0
-281 257 22 0
-282 258 0
-283 259 0
-284 260 23 0
-285 261 24 0
-286 262 0
-287 263 25 0
-288 264 0
-289 265 26 0
-290 266 27 0
-291 267 28 0
-292 268 0
-293 269 29 0
-294 270 0
-295 271 30 0
-296 272 0
-297 273 0
-31 -32 0
-31 -33 0
-31 -34 0
-31 -35 0
-31 -36 0
-31 -37 0
-31 -38 0
-31 -39 0
-31 -40 0
-31 -41 0
-31 -42 0
-31 -43 0
-31 -44 0
-31 -45 0
-32 -33 0
-32 -34 0
-32 -35 0
-32 -36 0
-32 -37 0
-32 -38 0
-32 -39 0
-32 -40 0
-32 -41 0
-32 -42 0
-32 -43 0
-32 -44 0
-32 -45 0
-33 -34 0
-33 -35 0
-33 -36 0
-33 -37 0
-33 -38 0
-33 -39 0
-33 -40 0
-33 -41 0
-33 -42 0
-33 -43 0
-33 -44 0
-33 -45 0
-34 -35 0
-34 -36 0
-34 -37 0
-34 -38 0
-34 -39 0
-34 -40 0
-34 -41 0
-34 -42 0
-34 -43 0
-34 -44 0
-34 -45 0
-35 -36 0
-35 -37 0
-35 -38 0
-35 -39 0
-35 -40 0
-35 -41 0
-35 -42 0
-35 -43 0
-35 -44 0
-35 -45 0
-36 -37 0
-36 -38 0
-36 -39 0
-36 -40 0
-36 -41 0
-36 -42 0
-36 -43 0
-36 -44 0
-36 -45 0
-37 -38 0
-37 -39 0
-37 -40 0
-37 -41 0
-37 -42 0
-37 -43 0
-37 -44 0
-37 -45 0
-38 -39 0
-38 -40 0
-38 -41 0
-38 -42 0
-38 -43 0
-38 -44 0
-38 -45 0
-39 -40 0
-39 -41 0
-39 -42 0
-39 -43 0
-39 -44 0
-39 -45 0
-40 -41 0
-40 -42 0
-40 -43 0
-40 -44 0
-40 -45 0
-41 -42 0
-41 -43 0
-41 -44 0
-41 -45 0
-42 -43 0
-42 -44 0
-42 -45 0
-43 -44 0
-43 -45 0
-44 -45 0
-298 274 31 0
-299 275 32 0
-300 276 33 0
-301 277 34 0
-302 278 0
-303 279 35 0
-304 280 36 0
-305 281 37 0
-306 282 0
-307 283 0
-308 284 38 0
-309 285 39 0
-310 286 0
-311 287 40 0
-312 288 0
-313 289 41 0
-314 290 42 0
-315 291 43 0
-316 292 0
-317 293 44 0
-318 294 0
-319 295 45 0
-320 296 0
-321 297 0
-46 -47 0
-46 -48 0
-46 -49 0
-46 -50 0
-46 -51 0
-46 -52 0
-46 -53 0
-46 -54 0
-46 -55 0
-46 -56 0
-46 -57 0
-46 -58 0
-46 -59 0
-46 -60 0
-47 -48 0
-47 -49 0
-47 -50 0
-47 -51 0
-47 -52 0
-47 -53 0
-47 -54 0
-47 -55 0
-47 -56 0
-47 -57 0
-47 -58 0
-47 -59 0
-47 -60 0
-48 -49 0
-48 -50 0
-48 -51 0
-48 -52 0
-48 -53 0
-48 -54 0
-48 -55 0
-48 -56 0
-48 -57 0
-48 -58 0
-48 -59 0
-48 -60 0
-49 -50 0
-49 -51 0
-49 -52 0
-49 -53 0
-49 -54 0
-49 -55 0
-49 -56 0
-49 -57 0
-49 -58 0
-49 -59 0
-49 -60 0
-50 -51 0
-50 -52 0
-50 -53 0
-50 -54 0
-50 -55 0
-50 -56 0
-50 -57 0
-50 -58 0
-50 -59 0
-50 -60 0
-51 -52 0
-51 -53 0
-51 -54 0
-51 -55 0
-51 -56 0
-51 -57 0
-51 -58 0
-51 -59 0
-51 -60 0
-52 -53 0
-52 -54 0
-52 -55 0
-52 -56 0
-52 -57 0
-52 -58 0
-52 -59 0
-52 -60 0
-53 -54 0
-53 -55 0
-53 -56 0
-53 -57 0
-53 -58 0
-53 -59 0
-53 -60 0
-54 -55 0
-54 -56 0
-54 -57 0
-54 -58 0
-54 -59 0
-54 -60 0
-55 -56 0
-55 -57 0
-55 -58 0
-55 -59 0
-55 -60 0
-56 -57 0
-56 -58 0
-56 -59 0
-56 -60 0
-57 -58 0
-57 -59 0
-57 -60 0
-58 -59 0
-58 -60 0
-59 -60 0
-322 298 46 0
-323 299 47 0
-324 300 48 0
-325 301 49 0
-326 302 0
-327 303 50 0
-328 304 51 0
-329 305 52 0
-330 306 0
-331 307 0
-332 308 53 0
-333 309 54 0
-334 310 0
-335 311 55 0
-336 312 0
-337 313 56 0
-338 314 57 0
-339 315 58 0
-340 316 0
-341 317 59 0
-342 318 0
-343 319 60 0
-344 320 0
-345 321 0
-61 -62 0
-61 -63 0
-61 -64 0
-61 -65 0
-61 -66 0
-61 -67 0
-61 -68 0
-61 -69 0
-61 -70 0
-61 -71 0
-61 -72 0
-61 -73 0
-61 -74 0
-61 -75 0
-62 -63 0
-62 -64 0
-62 -65 0
-62 -66 0
-62 -67 0
-62 -68 0
-62 -69 0
-62 -70 0
-62 -71 0
-62 -72 0
-62 -73 0
-62 -74 0
-62 -75 0
-63 -64 0
-63 -65 0
-63 -66 0
-63 -67 0
-63 -68 0
-63 -69 0
-63 -70 0
-63 -71 0
-63 -72 0
-63 -73 0
-63 -74 0
-63 -75 0
-64 -65 0
-64 -66 0
-64 -67 0
-64 -68 0
-64 -69 0
-64 -70 0
-64 -71 0
-64 -72 0
-64 -73 0
-64 -74 0
-64 -75 0
-65 -66 0
-65 -67 0
-65 -68 0
-65 -69 0
-65 -70 0
-65 -71 0
-65 -72 0
-65 -73 0
-65 -74 0
-65 -75 0
-66 -67 0
-66 -68 0
-66 -69 0
-66 -70 0
-66 -71 0
-66 -72 0
-66 -73 0
-66 -74 0
-66 -75 0
-67 -68 0
-67 -69 0
-67 -70 0
-67 -71 0
-67 -72 0
-67 -73 0
-67 -74 0
-67 -75 0
-68 -69 0
-68 -70 0
-68 -71 0
-68 -72 0
-68 -73 0
-68 -74 0
-68 -75 0
-69 -70 0
-69 -71 0
-69 -72 0
-69 -73 0
-69 -74 0
-69 -75 0
-70 -71 0
-70 -72 0
-70 -73 0
-70 -74 0
-70 -75 0
-71 -72 0
-71 -73 0
-71 -74 0
-71 -75 0
-72 -73 0
-72 -74 0
-72 -75 0
-73 -74 0
-73 -75 0
-74 -75 0
-346 322 61 0
-347 323 62 0
-348 324 63 0
-349 325 64 0
-350 326 0
-351 327 65 0
-352 328 66 0
-353 329 67 0
-354 330 0
-355 331 0
-356 332 68 0
-357 333 69 0
-358 334 0
-359 335 70 0
-360 336 0
-361 337 71 0
-362 338 72 0
-363 339 73 0
-364 340 0
-365 341 74 0
-366 342 0
-367 343 75 0
-368 344 0
-369 345 0
-76 -77 0
-76 -78 0
-76 -79 0
-76 -80 0
-76 -81 0
-76 -82 0
-76 -83 0
-76 -84 0
-76 -85 0
-76 -86 0
-76 -87 0
-76 -88 0
-76 -89 0
-76 -90 0
-77 -78 0
-77 -79 0
-77 -80 0
-77 -81 0
-77 -82 0
-77 -83 0
-77 -84 0
-77 -85 0
-77 -86 0
-77 -87 0
-77 -88 0
-77 -89 0
-77 -90 0
-78 -79 0
-78 -80 0
-78 -81 0
-78 -82 0
-78 -83 0
-78 -84 0
-78 -85 0
-78 -86 0
-78 -87 0
-78 -88 0
-78 -89 0
-78 -90 0
-79 -80 0
-79 -81 0
-79 -82 0
-79 -83 0
-79 -84 0
-79 -85 0
-79 -86 0
-79 -87 0
-79 -88 0
-79 -89 0
-79 -90 0
-80 -81 0
-80 -82 0
-80 -83 0
-80 -84 0
-80 -85 0
-80 -86 0
-80 -87 0
-80 -88 0
-80 -89 0
-80 -90 0
-81 -82 0
-81 -83 0
-81 -84 0
-81 -85 0
-81 -86 0
-81 -87 0
-81 -88 0
-81 -89 0
-81 -90 0
-82 -83 0
-82 -84 0
-82 -85 0
-82 -86 0
-82 -87 0
-82 -88 0
-82 -89 0
-82 -90 0
-83 -84 0
-83 -85 0
-83 -86 0
-83 -87 0
-83 -88 0
-83 -89 0
-83 -90 0
-84 -85 0
-84 -86 0
-84 -87 0
-84 -88 0
-84 -89 0
-84 -90 0
-85 -86 0
-85 -87 0
-85 -88 0
-85 -89 0
-85 -90 0
-86 -87 0
-86 -88 0
-86 -89 0
-86 -90 0
-87 -88 0
-87 -89 0
-87 -90 0
-88 -89 0
-88 -90 0
-89 -90 0
-370 346 76 0
-371 347 77 0
-372 348 78 0
-373 349 79 0
-374 350 0
-375 351 80 0
-376 352 81 0
-377 353 82 0
-378 354 0
-379 355 0
-380 356 83 0
-381 357 84 0
-382 358 0
-383 359 85 0
-384 360 0
-385 361 86 0
-386 362 87 0
-387 363 88 0
-388 364 0
-389 365 89 0
-390 366 0
-391 367 90 0
-392 368 0
-393 369 0
-91 -92 0
-91 -93 0
-91 -94 0
-91 -95 0
-91 -96 0
-91 -97 0
-91 -98 0
-91 -99 0
-91 -100 0
-91 -101 0
-91 -102 0
-91 -103 0
-91 -104 0
-91 -105 0
-92 -93 0
-92 -94 0
-92 -95 0
-92 -96 0
-92 -97 0
-92 -98 0
-92 -99 0
-92 -100 0
-92 -101 0
-92 -102 0
-92 -103 0
-92 -104 0
-92 -105 0
-93 -94 0
-93 -95 0
-93 -96 0
-93 -97 0
-93 -98 0
-93 -99 0
-93 -100 0
-93 -101 0
-93 -102 0
-93 -103 0
-93 -104 0
-93 -105 0
-94 -95 0
-94 -96 0
-94 -97 0
-94 -98 0
-94 -99 0
-94 -100 0
-94 -101 0
-94 -102 0
-94 -103 0
-94 -104 0
-94 -105 0
-95 -96 0
-95 -97 0
-95 -98 0
-95 -99 0
-95 -100 0
-95 -101 0
-95 -102 0
-95 -103 0
-95 -104 0
-95 -105 0
-96 -97 0
-96 -98 0
-96 -99 0
-96 -100 0
-96 -101 0
-96 -102 0
-96 -103 0
-96 -104 0
-96 -105 0
-97 -98 0
-97 -99 0
-97 -100 0
-97 -101 0
-97 -102 0
-97 -103 0
-97 -104 0
-97 -105 0
-98 -99 0
-98 -100 0
-98 -101 0
-98 -102 0
-98 -103 0
-98 -104 0
-98 -105 0
-99 -100 0
-99 -101 0
-99 -102 0
-99 -103 0
-99 -104 0
-99 -105 0
-100 -101 0
-100 -102 0
-100 -103 0
-100 -104 0
-100 -105 0
-101 -102 0
-101 -103 0
-101 -104 0
-101 -105 0
-102 -103 0
-102 -104 0
-102 -105 0
-103 -104 0
-103 -105 0
-104 -105 0
-394 370 91 0
-395 371 92 0
-396 372 93 0
-397 373 94 0
-398 374 0
-399 375 95 0
-400 376 96 0
-401 377 97 0
-402 378 0
-403 379 0
-404 380 98 0
-405 381 99 0
-406 382 0
-407 383 100 0
-408 384 0
-409 385 101 0
-410 386 102 0
-411 387 103 0
-412 388 0
-413 389 104 0
-414 390 0
-415 391 105 0
-416 392 0
-417 393 0
-106 -107 0
-106 -108 0
-106 -109 0
-106 -110 0
-106 -111 0
-106 -112 0
-106 -113 0
-106 -114 0
-106 -115 0
-106 -116 0
-106 -117 0
-106 -118 0
-106 -119 0
-106 -120 0
-107 -108 0
-107 -109 0
-107 -110 0
-107 -111 0
-107 -112 0
-107 -113 0
-107 -114 0
-107 -115 0
-107 -116 0
-107 -117 0
-107 -118 0
-107 -119 0
-107 -120 0
-108 -109 0
-108 -110 0
-108 -111 0
-108 -112 0
-108 -113 0
-108 -114 0
-108 -115 0
-108 -116 0
-108 -117 0
-108 -118 0
-108 -119 0
-108 -120 0
-109 -110 0
-109 -111 0
-109 -112 0
-109 -113 0
-109 -114 0
-109 -115 0
-109 -116 0
-109 -117 0
-109 -118 0
-109 -119 0
-109 -120 0
-110 -111 0
-110 -112 0
-110 -113 0
-110 -114 0
-110 -115 0
-110 -116 0
-110 -117 0
-110 -118 0
-110 -119 0
-110 -120 0
-111 -112 0
-111 -113 0
-111 -114 0
-111 -115 0
-111 -116 0
-111 -117 0
-111 -118 0
-111 -119 0
-111 -120 0
-112 -113 0
-112 -114 0
-112 -115 0
-112 -116 0
-112 -117 0
-112 -118 0
-112 -119 0
-112 -120 0
-113 -114 0
-113 -115 0
-113 -116 0
-113 -117 0
-113 -118 0
-113 -119 0
-113 -120 0
-114 -115 0
-114 -116 0
-114 -117 0
-114 -118 0
-114 -119 0
-114 -120 0
-115 -116 0
-115 -117 0
-115 -118 0
-115 -119 0
-115 -120 0
-116 -117 0
-116 -118 0
-116 -119 0
-116 -120 0
-117 -118 0
-117 -119 0
-117 -120 0
-118 -119 0
-118 -120 0
-119 -120 0
-418 394 106 0
-419 395 107 0
-420 396 108 0
-421 397 109 0
-422 398 0
-423 399 110 0
-424 400 111 0
-425 401 112 0
-426 402 0
-427 403 0
-428 404 113 0
-429 405 114 0
-430 406 0
-431 407 115 0
-432 408 0
-433 409 116 0
-434 410 117 0
-435 411 118 0
-436 412 0
-437 413 119 0
-438 414 0
-439 415 120 0
-440 416 0
-441 417 0
-121 -122 0
-121 -123 0
-121 -124 0
-121 -125 0
-121 -126 0
-121 -127 0
-121 -128 0
-121 -129 0
-121 -130 0
-121 -131 0
-121 -132 0
-121 -133 0
-121 -134 0
-121 -135 0
-122 -123 0
-122 -124 0
-122 -125 0
-122 -126 0
-122 -127 0
-122 -128 0
-122 -129 0
-122 -130 0
-122 -131 0
-122 -132 0
-122 -133 0
-122 -134 0
-122 -135 0
-123 -124 0
-123 -125 0
-123 -126 0
-123 -127 0
-123 -128 0
-123 -129 0
-123 -130 0
-123 -131 0
-123 -132 0
-123 -133 0
-123 -134 0
-123 -135 0
-124 -125 0
-124 -126 0
-124 -127 0
-124 -128 0
-124 -129 0
-124 -130 0
-124 -131 0
-124 -132 0
-124 -133 0
-124 -134 0
-124 -135 0
-125 -126 0
-125 -127 0
-125 -128 0
-125 -129 0
-125 -130 0
-125 -131 0
-125 -132 0
-125 -133 0
-125 -134 0
-125 -135 0
-126 -127 0
-126 -128 0
-126 -129 0
-126 -130 0
-126 -131 0
-126 -132 0
-126 -133 0
-126 -134 0
-126 -135 0
-127 -128 0
-127 -129 0
-127 -130 0
-127 -131 0
-127 -132 0
-127 -133 0
-127 -134 0
-127 -135 0
-128 -129 0
-128 -130 0
-128 -131 0
-128 -132 0
-128 -133 0
-128 -134 0
-128 -135 0
-129 -130 0
-129 -131 0
-129 -132 0
-129 -133 0
-129 -134 0
-129 -135 0
-130 -131 0
-130 -132 0
-130 -133 0
-130 -134 0
-130 -135 0
-131 -132 0
-131 -133 0
-131 -134 0
-131 -135 0
-132 -133 0
-132 -134 0
-132 -135 0
-133 -134 0
-133 -135 0
-134 -135 0
-442 418 121 0
-443 419 122 0
-444 420 123 0
-445 421 124 0
-446 422 0
-447 423 125 0
-448 424 126 0
-449 425 127 0
-450 426 0
-451 427 0
-452 428 128 0
-453 429 129 0
-454 430 0
-455 431 130 0
-456 432 0
-457 433 131 0
-458 434 132 0
-459 435 133 0
-460 436 0
-461 437 134 0
-462 438 0
-463 439 135 0
-464 440 0
-465 441 0
-136 -137 0
-136 -138 0
-136 -139 0
-136 -140 0
-136 -141 0
-136 -142 0
-136 -143 0
-136 -144 0
-136 -145 0
-136 -146 0
-136 -147 0
-136 -148 0
-136 -149 0
-136 -150 0
-137 -138 0
-137 -139 0
-137 -140 0
-137 -141 0
-137 -142 0
-137 -143 0
-137 -144 0
-137 -145 0
-137 -146 0
-137 -147 0
-137 -148 0
-137 -149 0
-137 -150 0
-138 -139 0
-138 -140 0
-138 -141 0
-138 -142 0
-138 -143 0
-138 -144 0
-138 -145 0
-138 -146 0
-138 -147 0
-138 -148 0
-138 -149 0
-138 -150 0
-139 -140 0
-139 -141 0
-139 -142 0
-139 -143 0
-139 -144 0
-139 -145 0
-139 -146 0
-139 -147 0
-139 -148 0
-139 -149 0
-139 -150 0
-140 -141 0
-140 -142 0
-140 -143 0
-140 -144 0
-140 -145 0
-140 -146 0
-140 -147 0
-140 -148 0
-140 -149 0
-140 -150 0
-141 -142 0
-141 -143 0
-141 -144 0
-141 -145 0
-141 -146 0
-141 -147 0
-141 -148 0
-141 -149 0
-141 -150 0
-142 -143 0
-142 -144 0
-142 -145 0
-142 -146 0
-142 -147 0
-142 -148 0
-142 -149 0
-142 -150 0
-143 -144 0
-143 -145 0
-143 -146 0
-143 -147 0
-143 -148 0
-143 -149 0
-143 -150 0
-144 -145 0
-144 -146 0
-144 -147 0
-144 -148 0
-144 -149 0
-144 -150 0
-145 -146 0
-145 -147 0
-145 -148 0
-145 -149 0
-145 -150 0
-146 -147 0
-146 -148 0
-146 -149 0
-146 -150 0
-147 -148 0
-147 -149 0
-147 -150 0
-148 -149 0
-148 -150 0
-149 -150 0
-466 442 136 0
-467 443 137 0
-468 444 138 0
-469 445 139 0
-470 446 0
-471 447 140 0
-472 448 141 0
-473 449 142 0
-474 450 0
-475 451 0
-476 452 143 0
-477 453 144 0
-478 454 0
-479 455 145 0
-480 456 0
-481 457 146 0
-482 458 147 0
-483 459 148 0
-484 460 0
-485 461 149 0
-486 462 0
-487 463 150 0
-488 464 0
-489 465 0
-151 -152 0
-151 -153 0
-151 -154 0
-151 -155 0
-151 -156 0
-151 -157 0
-151 -158 0
-151 -159 0
-151 -160 0
-151 -161 0
-151 -162 0
-151 -163 0
-151 -164 0
-151 -165 0
-152 -153 0
-152 -154 0
-152 -155 0
-152 -156 0
-152 -157 0
-152 -158 0
-152 -159 0
-152 -160 0
-152 -161 0
-152 -162 0
-152 -163 0
-152 -164 0
-152 -165 0
-153 -154 0
-153 -155 0
-153 -156 0
-153 -157 0
-153 -158 0
-153 -159 0
-153 -160 0
-153 -161 0
-153 -162 0
-153 -163 0
-153 -164 0
-153 -165 0
-154 -155 0
-154 -156 0
-154 -157 0
-154 -158 0
-154 -159 0
-154 -160 0
-154 -161 0
-154 -162 0
-154 -163 0
-154 -164 0
-154 -165 0
-155 -156 0
-155 -157 0
-155 -158 0
-155 -159 0
-155 -160 0
-155 -161 0
-155 -162 0
-155 -163 0
-155 -164 0
-155 -165 0
-156 -157 0
-156 -158 0
-156 -159 0
-156 -160 0
-156 -161 0
-156 -162 0
-156 -163 0
-156 -164 0
-156 -165 0
-157 -158 0
-157 -159 0
-157 -160 0
-157 -161 0
-157 -162 0
-157 -163 0
-157 -164 0
-157 -165 0
-158 -159 0
-158 -160 0
-158 -161 0
-158 -162 0
-158 -163 0
-158 -164 0
-158 -165 0
-159 -160 0
-159 -161 0
-159 -162 0
-159 -163 0
-159 -164 0
-159 -165 0
-160 -161 0
-160 -162 0
-160 -163 0
-160 -164 0
-160 -165 0
-161 -162 0
-161 -163 0
-161 -164 0
-161 -165 0
-162 -163 0
-162 -164 0
-162 -165 0
-163 -164 0
-163 -165 0
-164 -165 0
-490 466 151 0
-491 467 152 0
-492 468 153 0
-493 469 154 0
-494 470 0
-495 471 155 0
-496 472 156 0
-497 473 157 0
-498 474 0
-499 475 0
-500 476 158 0
-501 477 159 0
-502 478 0
-503 479 160 0
-504 480 0
-505 481 161 0
-506 482 162 0
-507 483 163 0
-508 484 0
-509 485 164 0
-510 486 0
-511 487 165 0
-512 488 0
-513 489 0
-166 -167 0
-166 -168 0
-166 -169 0
-166 -170 0
-166 -171 0
-166 -172 0
-166 -173 0
-166 -174 0
-166 -175 0
-166 -176 0
-166 -177 0
-166 -178 0
-166 -179 0
-166 -180 0
-167 -168 0
-167 -169 0
-167 -170 0
-167 -171 0
-167 -172 0
-167 -173 0
-167 -174 0
-167 -175 0
-167 -176 0
-167 -177 0
-167 -178 0
-167 -179 0
-167 -180 0
-168 -169 0
-168 -170 0
-168 -171 0
-168 -172 0
-168 -173 0
-168 -174 0
-168 -175 0
-168 -176 0
-168 -177 0
-168 -178 0
-168 -179 0
-168 -180 0
-169 -170 0
-169 -171 0
-169 -172 0
-169 -173 0
-169 -174 0
-169 -175 0
-169 -176 0
-169 -177 0
-169 -178 0
-169 -179 0
-169 -180 0
-170 -171 0
-170 -172 0
-170 -173 0
-170 -174 0
-170 -175 0
-170 -176 0
-170 -177 0
-170 -178 0
-170 -179 0
-170 -180 0
-171 -172 0
-171 -173 0
-171 -174 0
-171 -175 0
-171 -176 0
-171 -177 0
-171 -178 0
-171 -179 0
-171 -180 0
-172 -173 0
-172 -174 0
-172 -175 0
-172 -176 0
-172 -177 0
-172 -178 0
-172 -179 0
-172 -180 0
-173 -174 0
-173 -175 0
-173 -176 0
-173 -177 0
-173 -178 0
-173 -179 0
-173 -180 0
-174 -175 0
-174 -176 0
-174 -177 0
-174 -178 0
-174 -179 0
-174 -180 0
-175 -176 0
-175 -177 0
-175 -178 0
-175 -179 0
-175 -180 0
-176 -177 0
-176 -178 0
-176 -179 0
-176 -180 0
-177 -178 0
-177 -179 0
-177 -180 0
-178 -179 0
-178 -180 0
-179 -180 0
-514 490 166 0
-515 491 167 0
-516 492 168 0
-517 493 169 0
-518 494 0
-519 495 170 0
-520 496 171 0
-521 497 172 0
-522 498 0
-523 499 0
-524 500 173 0
-525 501 174 0
-526 502 0
-527 503 175 0
-528 504 0
-529 505 176 0
-530 506 177 0
-531 507 178 0
-532 508 0
-533 509 179 0
-534 510 0
-535 511 180 0
-536 512 0
-537 513 0
-181 -182 0
-181 -183 0
-181 -184 0
-181 -185 0
-181 -186 0
-181 -187 0
-181 -188 0
-181 -189 0
-181 -190 0
-181 -191 0
-181 -192 0
-181 -193 0
-181 -194 0
-181 -195 0
-182 -183 0
-182 -184 0
-182 -185 0
-182 -186 0
-182 -187 0
-182 -188 0
-182 -189 0
-182 -190 0
-182 -191 0
-182 -192 0
-182 -193 0
-182 -194 0
-182 -195 0
-183 -184 0
-183 -185 0
-183 -186 0
-183 -187 0
-183 -188 0
-183 -189 0
-183 -190 0
-183 -191 0
-183 -192 0
-183 -193 0
-183 -194 0
-183 -195 0
-184 -185 0
-184 -186 0
-184 -187 0
-184 -188 0
-184 -189 0
-184 -190 0
-184 -191 0
-184 -192 0
-184 -193 0
-184 -194 0
-184 -195 0
-185 -186 0
-185 -187 0
-185 -188 0
-185 -189 0
-185 -190 0
-185 -191 0
-185 -192 0
-185 -193 0
-185 -194 0
-185 -195 0
-186 -187 0
-186 -188 0
-186 -189 0
-186 -190 0
-186 -191 0
-186 -192 0
-186 -193 0
-186 -194 0
-186 -195 0
-187 -188 0
-187 -189 0
-187 -190 0
-187 -191 0
-187 -192 0
-187 -193 0
-187 -194 0
-187 -195 0
-188 -189 0
-188 -190 0
-188 -191 0
-188 -192 0
-188 -193 0
-188 -194 0
-188 -195 0
-189 -190 0
-189 -191 0
-189 -192 0
-189 -193 0
-189 -194 0
-189 -195 0
-190 -191 0
-190 -192 0
-190 -193 0
-190 -194 0
-190 -195 0
-191 -192 0
-191 -193 0
-191 -194 0
-191 -195 0
-192 -193 0
-192 -194 0
-192 -195 0
-193 -194 0
-193 -195 0
-194 -195 0
-538 514 181 0
-539 515 182 0
-540 516 183 0
-541 517 184 0
-542 518 0
-543 519 185 0
-544 520 186 0
-545 521 187 0
-546 522 0
-547 523 0
-548 524 188 0
-549 525 189 0
-550 526 0
-551 527 190 0
-552 528 0
-553 529 191 0
-554 530 192 0
-555 531 193 0
-556 532 0
-557 533 194 0
-558 534 0
-559 535 195 0
-560 536 0
-561 537 0
-196 -197 0
-196 -198 0
-196 -199 0
-196 -200 0
-196 -201 0
-196 -202 0
-196 -203 0
-196 -204 0
-196 -205 0
-196 -206 0
-196 -207 0
-196 -208 0
-196 -209 0
-196 -210 0
-197 -198 0
-197 -199 0
-197 -200 0
-197 -201 0
-197 -202 0
-197 -203 0
-197 -204 0
-197 -205 0
-197 -206 0
-197 -207 0
-197 -208 0
-197 -209 0
-197 -210 0
-198 -199 0
-198 -200 0
-198 -201 0
-198 -202 0
-198 -203 0
-198 -204 0
-198 -205 0
-198 -206 0
-198 -207 0
-198 -208 0
-198 -209 0
-198 -210 0
-199 -200 0
-199 -201 0
-199 -202 0
-199 -203 0
-199 -204 0
-199 -205 0
-199 -206 0
-199 -207 0
-199 -208 0
-199 -209 0
-199 -210 0
-200 -201 0
-200 -202 0
-200 -203 0
-200 -204 0
-200 -205 0
-200 -206 0
-200 -207 0
-200 -208 0
-200 -209 0
-200 -210 0
-201 -202 0
-201 -203 0
-201 -204 0
-201 -205 0
-201 -206 0
-201 -207 0
-201 -208 0
-201 -209 0
-201 -210 0
-202 -203 0
-202 -204 0
-202 -205 0
-202 -206 0
-202 -207 0
-202 -208 0
-202 -209 0
-202 -210 0
-203 -204 0
-203 -205 0
-203 -206 0
-203 -207 0
-203 -208 0
-203 -209 0
-203 -210 0
-204 -205 0
-204 -206 0
-204 -207 0
-204 -208 0
-204 -209 0
-204 -210 0
-205 -206 0
-205 -207 0
-205 -208 0
-205 -209 0
-205 -210 0
-206 -207 0
-206 -208 0
-206 -209 0
-206 -210 0
-207 -208 0
-207 -209 0
-207 -210 0
-208 -209 0
-208 -210 0
-209 -210 0
-562 538 196 0
-563 539 197 0
-564 540 198 0
-565 541 199 0
-566 542 0
-567 543 200 0
-568 544 201 0
-569 545 202 0
-570 546 0
-571 547 0
-572 548 203 0
-573 549 204 0
-574 550 0
-575 551 205 0
-576 552 0
-577 553 206 0
-578 554 207 0
-579 555 208 0
-580 556 0
-581 557 209 0
-582 558 0
-583 559 210 0
-584 560 0
-585 561 0
-211 -212 0
-211 -213 0
-211 -214 0
-211 -215 0
-211 -216 0
-211 -217 0
-211 -218 0
-211 -219 0
-211 -220 0
-211 -221 0
-211 -222 0
-211 -223 0
-211 -224 0
-211 -225 0
-212 -213 0
-212 -214 0
-212 -215 0
-212 -216 0
-212 -217 0
-212 -218 0
-212 -219 0
-212 -220 0
-212 -221 0
-212 -222 0
-212 -223 0
-212 -224 0
-212 -225 0
-213 -214 0
-213 -215 0
-213 -216 0
-213 -217 0
-213 -218 0
-213 -219 0
-213 -220 0
-213 -221 0
-213 -222 0
-213 -223 0
-213 -224 0
-213 -225 0
-214 -215 0
-214 -216 0
-214 -217 0
-214 -218 0
-214 -219 0
-214 -220 0
-214 -221 0
-214 -222 0
-214 -223 0
-214 -224 0
-214 -225 0
-215 -216 0
-215 -217 0
-215 -218 0
-215 -219 0
-215 -220 0
-215 -221 0
-215 -222 0
-215 -223 0
-215 -224 0
-215 -225 0
-216 -217 0
-216 -218 0
-216 -219 0
-216 -220 0
-216 -221 0
-216 -222 0
-216 -223 0
-216 -224 0
-216 -225 0
-217 -218 0
-217 -219 0
-217 -220 0
-217 -221 0
-217 -222 0
-217 -223 0
-217 -224 0
-217 -225 0
-218 -219 0
-218 -220 0
-218 -221 0
-218 -222 0
-218 -223 0
-218 -224 0
-218 -225 0
-219 -220 0
-219 -221 0
-219 -222 0
-219 -223 0
-219 -224 0
-219 -225 0
-220 -221 0
-220 -222 0
-220 -223 0
-220 -224 0
-220 -225 0
-221 -222 0
-221 -223 0
-221 -224 0
-221 -225 0
-222 -223 0
-222 -224 0
-222 -225 0
-223 -224 0
-223 -225 0
-224 -225 0
-586 562 211 0
-587 563 212 0
-588 564 213 0
-589 565 214 0
-590 566 0
-591 567 215 0
-592 568 216 0
-593 569 217 0
-594 570 0
-595 571 0
-596 572 218 0
-597 573 219 0
-598 574 0
-599 575 220 0
-600 576 0
-601 577 221 0
-602 578 222 0
-603 579 223 0
-604 580 0
-605 581 224 0
-606 582 0
-607 583 225 0
-608 584 0
-609 585 0
-226 0
-227 0
-228 0
-229 0
230 0
-231 0
-232 0
-233 0
234 0
235 0
-236 0
-237 0
238 0
-239 0
240 0
-241 0
-242 0
-243 0
244 0
-245 0
246 0
-247 0
248 0
249 0
1 16 31 46 61 76 91 106 121 136 151 166 181 196 211 0
2 17 32 47 62 77 92 107 122 137 152 167 182 197 212 0
3 18 33 48 63 78 93 108 123 138 153 168 183 198 213 0
4 19 34 49 64 79 94 109 124 139 154 169 184 199 214 0
5 20 35 50 65 80 95 110 125 140 155 170 185 200 215 0
6 21 36 51 66 81 96 111 126 141 156 171 186 201 216 0
7 22 37 52 67 82 97 112 127 142 157 172 187 202 217 0
8 23 38 53 68 83 98 113 128 143 158 173 188 203 218 0
9 24 39 54 69 84 99 114 129 144 159 174 189 204 219 0
10 25 40 55 70 85 100 115 130 145 160 175 190 205 220 0
11 26 41 56 71 86 101 116 131 146 161 176 191 206 221 0
12 27 42 57 72 87 102 117 132 147 162 177 192 207 222 0
13 28 43 58 73 88 103 118 133 148 163 178 193 208 223 0
14 29 44 59 74 89 104 119 134 149 164 179 194 209 224 0
15 30 45 60 75 90 105 120 135 150 165 180 195 210 225 0
-610 228 0
-610 230 0
-611 228 0
-611 230 0
-1 610 611 0
-2 0
-612 226 0
-612 230 0
-613 226 0
-613 230 0
-614 229 0
-614 241 0
-615 229 0
-615 241 0
-616 232 0
-616 233 0
-617 232 0
-617 233 0
-3 612 613 614 615 616 617 0
-618 228 0
-618 241 0
-619 228 0
-619 241 0
-620 232 0
-620 234 0
-621 232 0
-621 234 0
-4 618 619 620 621 0
-622 230 0
-622 246 0
-623 230 0
-623 246 0
-624 232 0
-624 237 0
-625 232 0
-625 237 0
-5 622 623 624 625 0
-626 228 0
-626 233 0
-627 228 0
-627 233 0
-628 229 0
-628 234 0
-629 229 0
-629 234 0
-630 230 0
-630 235 0
-631 230 0
-631 235 0
-632 231 0
-632 237 0
-633 231 0
-633 237 0
-6 626 627 628 629 630 631 632 633 0
-634 228 0
-634 232 0
-635 228 0
-635 232 0
-636 234 0
-636 241 0
-637 234 0
-637 241 0
-7 634 635 636 637 0
-8 0
-638 231 0
-638 232 0
-639 231 0
-639 232 0
-640 235 0
-640 246 0
-641 235 0
-641 246 0
-9 638 639 640 641 0
-642 240 0
-642 244 0
-643 240 0
-643 244 0
-644 241 0
-644 243 0
-645 241 0
-645 243 0
-10 642 643 644 645 0
-646 228 0
-646 229 0
-647 228 0
-647 229 0
-648 233 0
-648 234 0
-649 233 0
-649 234 0
-650 239 0
-650 243 0
-651 239 0
-651 243 0
-652 240 0
-652 248 0
-653 240 0
-653 248 0
-11 646 647 648 649 650 651 652 653 0
-654 244 0
-654 247 0
-655 244 0
-655 247 0
-656 245 0
-656 246 0
-657 245 0
-657 246 0
-12 654 655 656 657 0
-658 239 0
-658 241 0
-659 239 0
-659 241 0
-660 244 0
-660 248 0
-661 244 0
-661 248 0
-13 658 659 660 661 0
-662 242 0
-662 246 0
-663 242 0
-663 246 0
-664 244 0
-664 249 0
-665 244 0
-665 249 0
-14 662 663 664 665 0
-666 242 0
-666 244 0
-667 242 0
-667 244 0
-668 246 0
-668 249 0
-669 246 0
-669 249 0
-15 666 667 668 669 0
-670 252 0
-670 254 0
-671 252 0
-671 254 0
-16 670 671 0
-17 0
-672 250 0
-672 254 0
-673 250 0
-673 254 0
-674 253 0
-674 265 0
-675 253 0
-675 265 0
-676 256 0
-676 257 0
-677 256 0
-677 257 0
-18 672 673 674 675 676 677 0
-678 252 0
-678 265 0
-679 252 0
-679 265 0
-680 256 0
-680 258 0
-681 256 0
-681 258 0
-19 678 679 680 681 0
-682 254 0
-682 270 0
-683 254 0
-683 270 0
-684 256 0
-684 261 0
-685 256 0
-685 261 0
-20 682 683 684 685 0
-686 252 0
-686 257 0
-687 252 0
-687 257 0
-688 253 0
-688 258 0
-689 253 0
-689 258 0
-690 254 0
-690 259 0
-691 254 0
-691 259 0
-692 255 0
-692 261 0
-693 255 0
-693 261 0
-21 686 687 688 689 690 691 692 693 0
-694 252 0
-694 256 0
-695 252 0
-695 256 0
-696 258 0
-696 265 0
-697 258 0
-697 265 0
-22 694 695 696 697 0
-23 0
-698 255 0
-698 256 0
-699 255 0
-699 256 0
-700 259 0
-700 270 0
-701 259 0
-701 270 0
-24 698 699 700 701 0
-702 264 0
-702 268 0
-703 264 0
-703 268 0
-704 265 0
-704 267 0
-705 265 0
-705 267 0
-25 702 703 704 705 0
-706 252 0
-706 253 0
-707 252 0
-707 253 0
-708 257 0
-708 258 0
-709 257 0
-709 258 0
-710 263 0
-710 267 0
-711 263 0
-711 267 0
-712 264 0
-712 272 0
-713 264 0
-713 272 0
-26 706 707 708 709 710 711 712 713 0
-714 268 0
-714 271 0
-715 268 0
-715 271 0
-716 269 0
-716 270 0
-717 269 0
-717 270 0
-27 714 715 716 717 0
-718 263 0
-718 265 0
-719 263 0
-719 265 0
-720 268 0
-720 272 0
-721 268 0
-721 272 0
-28 718 719 720 721 0
-722 266 0
-722 270 0
-723 266 0
-723 270 0
-724 268 0
-724 273 0
-725 268 0
-725 273 0
-29 722 723 724 725 0
-726 266 0
-726 268 0
-727 266 0
-727 268 0
-728 270 0
-728 273 0
-729 270 0
-729 273 0
-30 726 727 728 729 0
-730 276 0
-730 278 0
-731 276 0
-731 278 0
-31 730 731 0
-32 0
-732 274 0
-732 278 0
-733 274 0
-733 278 0
-734 277 0
-734 289 0
-735 277 0
-735 289 0
-736 280 0
-736 281 0
-737 280 0
-737 281 0
-33 732 733 734 735 736 737 0
-738 276 0
-738 289 0
-739 276 0
-739 289 0
-740 280 0
-740 282 0
-741 280 0
-741 282 0
-34 738 739 740 741 0
-742 278 0
-742 294 0
-743 278 0
-743 294 0
-744 280 0
-744 285 0
-745 280 0
-745 285 0
-35 742 743 744 745 0
-746 276 0
-746 281 0
-747 276 0
-747 281 0
-748 277 0
-748 282 0
-749 277 0
-749 282 0
-750 278 0
-750 283 0
-751 278 0
-751 283 0
-752 279 0
-752 285 0
-753 279 0
-753 285 0
-36 746 747 748 749 750 751 752 753 0
-754 276 0
-754 280 0
-755 276 0
-755 280 0
-756 282 0
-756 289 0
-757 282 0
-757 289 0
-37 754 755 756 757 0
-38 0
-758 279 0
-758 280 0
-759 279 0
-759 280 0
-760 283 0
-760 294 0
-761 283 0
-761 294 0
-39 758 759 760 761 0
-762 288 0
-762 292 0
-763 288 0
-763 292 0
-764 289 0
-764 291 0
-765 289 0
-765 291 0
-40 762 763 764 765 0
-766 276 0
-766 277 0
-767 276 0
-767 277 0
-768 281 0
-768 282 0
-769 281 0
-769 282 0
-770 287 0
-770 291 0
-771 287 0
-771 291 0
-772 288 0
-772 296 0
-773 288 0
-773 296 0
-41 766 767 768 769 770 771 772 773 0
-774 292 0
-774 295 0
-775 292 0
-775 295 0
-776 293 0
-776 294 0
-777 293 0
-777 294 0
-42 774 775 776 777 0
-778 287 0
-778 289 0
-779 287 0
-779 289 0
-780 292 0
-780 296 0
-781 292 0
-781 296 0
-43 778 779 780 781 0
-782 290 0
-782 294 0
-783 290 0
-783 294 0
-784 292 0
-784 297 0
-785 292 0
-785 297 0
-44 782 783 784 785 0
-786 290 0
-786 292 0
-787 290 0
-787 292 0
-788 294 0
-788 297 0
-789 294 0
-789 297 0
-45 786 787 788 789 0
-790 300 0
-790 302 0
-791 300 0
-791 302 0
-46 790 791 0
-47 0
-792 298 0
-792 302 0
-793 298 0
-793 302 0
-794 301 0
-794 313 0
-795 301 0
-795 313 0
-796 304 0
-796 305 0
-797 304 0
-797 305 0
-48 792 793 794 795 796 797 0
-798 300 0
-798 313 0
-799 300 0
-799 313 0
-800 304 0
-800 306 0
-801 304 0
-801 306 0
-49 798 799 800 801 0
-802 302 0
-802 318 0
-803 302 0
-803 318 0
-804 304 0
-804 309 0
-805 304 0
-805 309 0
-50 802 803 804 805 0
-806 300 0
-806 305 0
-807 300 0
-807 305 0
-808 301 0
-808 306 0
-809 301 0
-809 306 0
-810 302 0
-810 307 0
-811 302 0
-811 307 0
-812 303 0
-812 309 0
-813 303 0
-813 309 0
-51 806 807 808 809 810 811 812 813 0
-814 300 0
-814 304 0
-815 300 0
-815 304 0
-816 306 0
-816 313 0
-817 306 0
-817 313 0
-52 814 815 816 817 0
-53 0
-818 303 0
-818 304 0
-819 303 0
-819 304 0
-820 307 0
-820 318 0
-821 307 0
-821 318 0
-54 818 819 820 821 0
-822 312 0
-822 316 0
-823 312 0
-823 316 0
-824 313 0
-824 315 0
-825 313 0
-825 315 0
-55 822 823 824 825 0
-826 300 0
-826 301 0
-827 300 0
-827 301 0
-828 305 0
-828 306 0
-829 305 0
-829 306 0
-830 311 0
-830 315 0
-831 311 0
-831 315 0
-832 312 0
-832 320 0
-833 312 0
-833 320 0
-56 826 827 828 829 830 831 832 833 0
-834 316 0
-834 319 0
-835 316 0
-835 319 0
-836 317 0
-836 318 0
-837 317 0
-837 318 0
-57 834 835 836 837 0
-838 311 0
-838 313 0
-839 311 0
-839 313 0
-840 316 0
-840 320 0
-841 316 0
-841 320 0
-58 838 839 840 841 0
-842 314 0
-842 318 0
-843 314 0
-843 318 0
-844 316 0
-844 321 0
-845 316 0
-845 321 0
-59 842 843 844 845 0
-846 314 0
-846 316 0
-847 314 0
-847 316 0
-848 318 0
-848 321 0
-849 318 0
-849 321 0
-60 846 847 848 849 0
-850 324 0
-850 326 0
-851 324 0
-851 326 0
-61 850 851 0
-62 0
-852 322 0
-852 326 0
-853 322 0
-853 326 0
-854 325 0
-854 337 0
-855 325 0
-855 337 0
-856 328 0
-856 329 0
-857 328 0
-857 329 0
-63 852 853 854 855 856 857 0
-858 324 0
-858 337 0
-859 324 0
-859 337 0
-860 328 0
-860 330 0
-861 328 0
-861 330 0
-64 858 859 860 861 0
-862 326 0
-862 342 0
-863 326 0
-863 342 0
-864 328 0
-864 333 0
-865 328 0
-865 333 0
-65 862 863 864 865 0
-866 324 0
-866 329 0
-867 324 0
-867 329 0
-868 325 0
-868 330 0
-869 325 0
-869 330 0
-870 326 0
-870 331 0
-871 326 0
-871 331 0
-872 327 0
-872 333 0
-873 327 0
-873 333 0
-66 866 867 868 869 870 871 872 873 0
-874 324 0
-874 328 0
-875 324 0
-875 328 0
-876 330 0
-876 337 0
-877 330 0
-877 337 0
-67 874 875 876 877 0
-68 0
-878 327 0
-878 328 0
-879 327 0
-879 328 0
-880 331 0
-880 342 0
-881 331 0
-881 342 0
-69 878 879 880 881 0
-882 336 0
-882 340 0
-883 336 0
-883 340 0
-884 337 0
-884 339 0
-885 337 0
-885 339 0
-70 882 883 884 885 0
-886 324 0
-886 325 0
-887 324 0
-887 325 0
-888 329 0
-888 330 0
-889 329 0
-889 330 0
-890 335 0
-890 339 0
-891 335 0
-891 339 0
-892 336 0
-892 344 0
-893 336 0
-893 344 0
-71 886 887 888 889 890 891 892 893 0
-894 340 0
-894 343 0
-895 340 0
-895 343 0
-896 341 0
-896 342 0
-897 341 0
-897 342 0
-72 894 895 896 897 0
-898 335 0
-898 337 0
-899 335 0
-899 337 0
-900 340 0
-900 344 0
-901 340 0
-901 344 0
-73 898 899 900 901 0
-902 338 0
-902 342 0
-903 338 0
-903 342 0
-904 340 0
-904 345 0
-905 340 0
-905 345 0
-74 902 903 904 905 0
-906 338 0
-906 340 0
-907 338 0
-907 340 0
-908 342 0
-908 345 0
-909 342 0
-909 345 0
-75 906 907 908 909 0
-910 348 0
-910 350 0
-911 348 0
-911 350 0
-76 910 911 0
-77 0
-912 346 0
-912 350 0
-913 346 0
-913 350 0
-914 349 0
-914 361 0
-915 349 0
-915 361 0
-916 352 0
-916 353 0
-917 352 0
-917 353 0
-78 912 913 914 915 916 917 0
-918 348 0
-918 361 0
-919 348 0
-919 361 0
-920 352 0
-920 354 0
-921 352 0
-921 354 0
-79 918 919 920 921 0
-922 350 0
-922 366 0
-923 350 0
-923 366 0
-924 352 0
-924 357 0
-925 352 0
-925 357 0
-80 922 923 924 925 0
-926 348 0
-926 353 0
-927 348 0
-927 353 0
-928 349 0
-928 354 0
-929 349 0
-929 354 0
-930 350 0
-930 355 0
-931 350 0
-931 355 0
-932 351 0
-932 357 0
-933 351 0
-933 357 0
-81 926 927 928 929 930 931 932 933 0
-934 348 0
-934 352 0
-935 348 0
-935 352 0
-936 354 0
-936 361 0
-937 354 0
-937 361 0
-82 934 935 936 937 0
-83 0
-938 351 0
-938 352 0
-939 351 0
-939 352 0
-940 355 0
-940 366 0
-941 355 0
-941 366 0
-84 938 939 940 941 0
-942 360 0
-942 364 0
-943 360 0
-943 364 0
-944 361 0
-944 363 0
-945 361 0
-945 363 0
-85 942 943 944 945 0
-946 348 0
-946 349 0
-947 348 0
-947 349 0
-948 353 0
-948 354 0
-949 353 0
-949 354 0
-950 359 0
-950 363 0
-951 359 0
-951 363 0
-952 360 0
-952 368 0
-953 360 0
-953 368 0
-86 946 947 948 949 950 951 952 953 0
-954 364 0
-954 367 0
-955 364 0
-955 367 0
-956 365 0
-956 366 0
-957 365 0
-957 366 0
-87 954 955 956 957 0
-958 359 0
-958 361 0
-959 359 0
-959 361 0
-960 364 0
-960 368 0
-961 364 0
-961 368 0
-88 958 959 960 961 0
-962 362 0
-962 366 0
-963 362 0
-963 366 0
-964 364 0
-964 369 0
-965 364 0
-965 369 0
-89 962 963 964 965 0
-966 362 0
-966 364 0
-967 362 0
-967 364 0
-968 366 0
-968 369 0
-969 366 0
-969 369 0
-90 966 967 968 969 0
-970 372 0
-970 374 0
-971 372 0
-971 374 0
-91 970 971 0
-92 0
-972 370 0
-972 374 0
-973 370 0
-973 374 0
-974 373 0
-974 385 0
-975 373 0
-975 385 0
-976 376 0
-976 377 0
-977 376 0
-977 377 0
-93 972 973 974 975 976 977 0
-978 372 0
-978 385 0
-979 372 0
-979 385 0
-980 376 0
-980 378 0
-981 376 0
-981 378 0
-94 978 979 980 981 0
-982 374 0
-982 390 0
-983 374 0
-983 390 0
-984 376 0
-984 381 0
-985 376 0
-985 381 0
-95 982 983 984 985 0
-986 372 0
-986 377 0
-987 372 0
-987 377 0
-988 373 0
-988 378 0
-989 373 0
-989 378 0
-990 374 0
-990 379 0
-991 374 0
-991 379 0
-992 375 0
-992 381 0
-993 375 0
-993 381 0
-96 986 987 988 989 990 991 992 993 0
-994 372 0
-994 376 0
-995 372 0
-995 376 0
-996 378 0
-996 385 0
-997 378 0
-997 385 0
-97 994 995 996 997 0
-98 0
-998 375 0
-998 376 0
-999 375 0
-999 376 0
-1000 379 0
-1000 390 0
-1001 379 0
-1001 390 0
-99 998 999 1000 1001 0
-1002 384 0
-1002 388 0
-1003 384 0
-1003 388 0
-1004 385 0
-1004 387 0
-1005 385 0
-1005 387 0
-100 1002 1003 1004 1005 0
-1006 372 0
-1006 373 0
-1007 372 0
-1007 373 0
-1008 377 0
-1008 378 0
-1009 377 0
-1009 378 0
-1010 383 0
-1010 387 0
-1011 383 0
-1011 387 0
-1012 384 0
-1012 392 0
-1013 384 0
-1013 392 0
-101 1006 1007 1008 1009 1010 1011 1012 1013 0
-1014 388 0
-1014 391 0
-1015 388 0
-1015 391 0
-1016 389 0
-1016 390 0
-1017 389 0
-1017 390 0
-102 1014 1015 1016 1017 0
-1018 383 0
-1018 385 0
-1019 383 0
-1019 385 0
-1020 388 0
-1020 392 0
-1021 388 0
-1021 392 0
-103 1018 1019 1020 1021 0
-1022 386 0
-1022 390 0
-1023 386 0
-1023 390 0
-1024 388 0
-1024 393 0
-1025 388 0
-1025 393 0
-104 1022 1023 1024 1025 0
-1026 386 0
-1026 388 0
-1027 386 0
-1027 388 0
-1028 390 0
-1028 393 0
-1029 390 0
-1029 393 0
-105 1026 1027 1028 1029 0
-1030 396 0
-1030 398 0
-1031 396 0
-1031 398 0
-106 1030 1031 0
-107 0
-1032 394 0
-1032 398 0
-1033 394 0
-1033 398 0
-1034 397 0
-1034 409 0
-1035 397 0
-1035 409 0
-1036 400 0
-1036 401 0
-1037 400 0
-1037 401 0
-108 1032 1033 1034 1035 1036 1037 0
-1038 396 0
-1038 409 0
-1039 396 0
-1039 409 0
-1040 400 0
-1040 402 0
-1041 400 0
-1041 402 0
-109 1038 1039 1040 1041 0
-1042 398 0
-1042 414 0
-1043 398 0
-1043 414 0
-1044 400 0
-1044 405 0
-1045 400 0
-1045 405 0
-110 1042 1043 1044 1045 0
-1046 396 0
-1046 401 0
-1047 396 0
-1047 401 0
-1048 397 0
-1048 402 0
-1049 397 0
-1049 402 0
-1050 398 0
-1050 403 0
-1051 398 0
-1051 403 0
-1052 399 0
-1052 405 0
-1053 399 0
-1053 405 0
-111 1046 1047 1048 1049 1050 1051 1052 1053 0
-1054 396 0
-1054 400 0
-1055 396 0
-1055 400 0
-1056 402 0
-1056 409 0
-1057 402 0
-1057 409 0
-112 1054 1055 1056 1057 0
-113 0
-1058 399 0
-1058 400 0
-1059 399 0
-1059 400 0
-1060 403 0
-1060 414 0
-1061 403 0
-1061 414 0
-114 1058 1059 1060 1061 0
-1062 408 0
-1062 412 0
-1063 408 0
-1063 412 0
-1064 409 0
-1064 411 0
-1065 409 0
-1065 411 0
-115 1062 1063 1064 1065 0
-1066 396 0
-1066 397 0
-1067 396 0
-1067 397 0
-1068 401 0
-1068 402 0
-1069 401 0
-1069 402 0
-1070 407 0
-1070 411 0
-1071 407 0
-1071 411 0
-1072 408 0
-1072 416 0
-1073 408 0
-1073 416 0
-116 1066 1067 1068 1069 1070 1071 1072 1073 0
-1074 412 0
-1074 415 0
-1075 412 0
-1075 415 0
-1076 413 0
-1076 414 0
-1077 413 0
-1077 414 0
-117 1074 1075 1076 1077 0
-1078 407 0
-1078 409 0
-1079 407 0
-1079 409 0
-1080 412 0
-1080 416 0
-1081 412 0
-1081 416 0
-118 1078 1079 1080 1081 0
-1082 410 0
-1082 414 0
-1083 410 0
-1083 414 0
-1084 412 0
-1084 417 0
-1085 412 0
-1085 417 0
-119 1082 1083 1084 1085 0
-1086 410 0
-1086 412 0
-1087 410 0
-1087 412 0
-1088 414 0
-1088 417 0
-1089 414 0
-1089 417 0
-120 1086 1087 1088 1089 0
-1090 420 0
-1090 422 0
-1091 420 0
-1091 422 0
-121 1090 1091 0
-122 0
-1092 418 0
-1092 422 0
-1093 418 0
-1093 422 0
-1094 421 0
-1094 433 0
-1095 421 0
-1095 433 0
-1096 424 0
-1096 425 0
-1097 424 0
-1097 425 0
-123 1092 1093 1094 1095 1096 1097 0
-1098 420 0
-1098 433 0
-1099 420 0
-1099 433 0
-1100 424 0
-1100 426 0
-1101 424 0
-1101 426 0
-124 1098 1099 1100 1101 0
-1102 422 0
-1102 438 0
-1103 422 0
-1103 438 0
-1104 424 0
-1104 429 0
-1105 424 0
-1105 429 0
-125 1102 1103 1104 1105 0
-1106 420 0
-1106 425 0
-1107 420 0
-1107 425 0
-1108 421 0
-1108 426 0
-1109 421 0
-1109 426 0
-1110 422 0
-1110 427 0
-1111 422 0
-1111 427 0
-1112 423 0
-1112 429 0
-1113 423 0
-1113 429 0
-126 1106 1107 1108 1109 1110 1111 1112 1113 0
-1114 420 0
-1114 424 0
-1115 420 0
-1115 424 0
-1116 426 0
-1116 433 0
-1117 426 0
-1117 433 0
-127 1114 1115 1116 1117 0
-128 0
-1118 423 0
-1118 424 0
-1119 423 0
-1119 424 0
-1120 427 0
-1120 438 0
-1121 427 0
-1121 438 0
-129 1118 1119 1120 1121 0
-1122 432 0
-1122 436 0
-1123 432 0
-1123 436 0
-1124 433 0
-1124 435 0
-1125 433 0
-1125 435 0
-130 1122 1123 1124 1125 0
-1126 420 0
-1126 421 0
-1127 420 0
-1127 421 0
-1128 425 0
-1128 426 0
-1129 425 0
-1129 426 0
-1130 431 0
-1130 435 0
-1131 431 0
-1131 435 0
-1132 432 0
-1132 440 0
-1133 432 0
-1133 440 0
-131 1126 1127 1128 1129 1130 1131 1132 1133 0
-1134 436 0
-1134 439 0
-1135 436 0
-1135 439 0
-1136 437 0
-1136 438 0
-1137 437 0
-1137 438 0
-132 1134 1135 1136 1137 0
-1138 431 0
-1138 433 0
-1139 431 0
-1139 433 0
-1140 436 0
-1140 440 0
-1141 436 0
-1141 440 0
-133 1138 1139 1140 1141 0
-1142 434 0
-1142 438 0
-1143 434 0
-1143 438 0
-1144 436 0
-1144 441 0
-1145 436 0
-1145 441 0
-134 1142 1143 1144 1145 0
-1146 434 0
-1146 436 0
-1147 434 0
-1147 436 0
-1148 438 0
-1148 441 0
-1149 438 0
-1149 441 0
-135 1146 1147 1148 1149 0
-1150 444 0
-1150 446 0
-1151 444 0
-1151 446 0
-136 1150 1151 0
-137 0
-1152 442 0
-1152 446 0
-1153 442 0
-1153 446 0
-1154 445 0
-1154 457 0
-1155 445 0
-1155 457 0
-1156 448 0
-1156 449 0
-1157 448 0
-1157 449 0
-138 1152 1153 1154 1155 1156 1157 0
-1158 444 0
-1158 457 0
-1159 444 0
-1159 457 0
-1160 448 0
-1160 450 0
-1161 448 0
-1161 450 0
-139 1158 1159 1160 1161 0
-1162 446 0
-1162 462 0
-1163 446 0
-1163 462 0
-1164 448 0
-1164 453 0
-1165 448 0
-1165 453 0
-140 1162 1163 1164 1165 0
-1166 444 0
-1166 449 0
-1167 444 0
-1167 449 0
-1168 445 0
-1168 450 0
-1169 445 0
-1169 450 0
-1170 446 0
-1170 451 0
-1171 446 0
-1171 451 0
-1172 447 0
-1172 453 0
-1173 447 0
-1173 453 0
-141 1166 1167 1168 1169 1170 1171 1172 1173 0
-1174 444 0
-1174 448 0
-1175 444 0
-1175 448 0
-1176 450 0
-1176 457 0
-1177 450 0
-1177 457 0
-142 1174 1175 1176 1177 0
-143 0
-1178 447 0
-1178 448 0
-1179 447 0
-1179 448 0
-1180 451 0
-1180 462 0
-1181 451 0
-1181 462 0
-144 1178 1179 1180 1181 0
-1182 456 0
-1182 460 0
-1183 456 0
-1183 460 0
-1184 457 0
-1184 459 0
-1185 457 0
-1185 459 0
-145 1182 1183 1184 1185 0
-1186 444 0
-1186 445 0
-1187 444 0
-1187 445 0
-1188 449 0
-1188 450 0
-1189 449 0
-1189 450 0
-1190 455 0
-1190 459 0
-1191 455 0
-1191 459 0
-1192 456 0
-1192 464 0
-1193 456 0
-1193 464 0
-146 1186 1187 1188 1189 1190 1191 1192 1193 0
-1194 460 0
-1194 463 0
-1195 460 0
-1195 463 0
-1196 461 0
-1196 462 0
-1197 461 0
-1197 462 0
-147 1194 1195 1196 1197 0
-1198 455 0
-1198 457 0
-1199 455 0
-1199 457 0
-1200 460 0
-1200 464 0
-1201 460 0
-1201 464 0
-148 1198 1199 1200 1201 0
-1202 458 0
-1202 462 0
-1203 458 0
-1203 462 0
-1204 460 0
-1204 465 0
-1205 460 0
-1205 465 0
-149 1202 1203 1204 1205 0
-1206 458 0
-1206 460 0
-1207 458 0
-1207 460 0
-1208 462 0
-1208 465 0
-1209 462 0
-1209 465 0
-150 1206 1207 1208 1209 0
-1210 468 0
-1210 470 0
-1211 468 0
-1211 470 0
-151 1210 1211 0
-152 0
-1212 466 0
-1212 470 0
-1213 466 0
-1213 470 0
-1214 469 0
-1214 481 0
-1215 469 0
-1215 481 0
-1216 472 0
-1216 473 0
-1217 472 0
-1217 473 0
-153 1212 1213 1214 1215 1216 1217 0
-1218 468 0
-1218 481 0
-1219 468 0
-1219 481 0
-1220 472 0
-1220 474 0
-1221 472 0
-1221 474 0
-154 1218 1219 1220 1221 0
-1222 470 0
-1222 486 0
-1223 470 0
-1223 486 0
-1224 472 0
-1224 477 0
-1225 472 0
-1225 477 0
-155 1222 1223 1224 1225 0
-1226 468 0
-1226 473 0
-1227 468 0
-1227 473 0
-1228 469 0
-1228 474 0
-1229 469 0
-1229 474 0
-1230 470 0
-1230 475 0
-1231 470 0
-1231 475 0
-1232 471 0
-1232 477 0
-1233 471 0
-1233 477 0
-156 1226 1227 1228 1229 1230 1231 1232 1233 0
-1234 468 0
-1234 472 0
-1235 468 0
-1235 472 0
-1236 474 0
-1236 481 0
-1237 474 0
-1237 481 0
-157 1234 1235 1236 1237 0
-158 0
-1238 471 0
-1238 472 0
-1239 471 0
-1239 472 0
-1240 475 0
-1240 486 0
-1241 475 0
-1241 486 0
-159 1238 1239 1240 1241 0
-1242 480 0
-1242 484 0
-1243 480 0
-1243 484 0
-1244 481 0
-1244 483 0
-1245 481 0
-1245 483 0
-160 1242 1243 1244 1245 0
-1246 468 0
-1246 469 0
-1247 468 0
-1247 469 0
-1248 473 0
-1248 474 0
-1249 473 0
-1249 474 0
-1250 479 0
-1250 483 0
-1251 479 0
-1251 483 0
-1252 480 0
-1252 488 0
-1253 480 0
-1253 488 0
-161 1246 1247 1248 1249 1250 1251 1252 1253 0
-1254 484 0
-1254 487 0
-1255 484 0
-1255 487 0
-1256 485 0
-1256 486 0
-1257 485 0
-1257 486 0
-162 1254 1255 1256 1257 0
-1258 479 0
-1258 481 0
-1259 479 0
-1259 481 0
-1260 484 0
-1260 488 0
-1261 484 0
-1261 488 0
-163 1258 1259 1260 1261 0
-1262 482 0
-1262 486 0
-1263 482 0
-1263 486 0
-1264 484 0
-1264 489 0
-1265 484 0
-1265 489 0
-164 1262 1263 1264 1265 0
-1266 482 0
-1266 484 0
-1267 482 0
-1267 484 0
-1268 486 0
-1268 489 0
-1269 486 0
-1269 489 0
-165 1266 1267 1268 1269 0
-1270 492 0
-1270 494 0
-1271 492 0
-1271 494 0
-166 1270 1271 0
-167 0
-1272 490 0
-1272 494 0
-1273 490 0
-1273 494 0
-1274 493 0
-1274 505 0
-1275 493 0
-1275 505 0
-1276 496 0
-1276 497 0
-1277 496 0
-1277 497 0
-168 1272 1273 1274 1275 1276 1277 0
-1278 492 0
-1278 505 0
-1279 492 0
-1279 505 0
-1280 496 0
-1280 498 0
-1281 496 0
-1281 498 0
-169 1278 1279 1280 1281 0
-1282 494 0
-1282 510 0
-1283 494 0
-1283 510 0
-1284 496 0
-1284 501 0
-1285 496 0
-1285 501 0
-170 1282 1283 1284 1285 0
-1286 492 0
-1286 497 0
-1287 492 0
-1287 497 0
-1288 493 0
-1288 498 0
-1289 493 0
-1289 498 0
-1290 494 0
-1290 499 0
-1291 494 0
-1291 499 0
-1292 495 0
-1292 501 0
-1293 495 0
-1293 501 0
-171 1286 1287 1288 1289 1290 1291 1292 1293 0
-1294 492 0
-1294 496 0
-1295 492 0
-1295 496 0
-1296 498 0
-1296 505 0
-1297 498 0
-1297 505 0
-172 1294 1295 1296 1297 0
-173 0
-1298 495 0
-1298 496 0
-1299 495 0
-1299 496 0
-1300 499 0
-1300 510 0
-1301 499 0
-1301 510 0
-174 1298 1299 1300 1301 0
-1302 504 0
-1302 508 0
-1303 504 0
-1303 508 0
-1304 505 0
-1304 507 0
-1305 505 0
-1305 507 0
-175 1302 1303 1304 1305 0
-1306 492 0
-1306 493 0
-1307 492 0
-1307 493 0
-1308 497 0
-1308 498 0
-1309 497 0
-1309 498 0
-1310 503 0
-1310 507 0
-1311 503 0
-1311 507 0
-1312 504 0
-1312 512 0
-1313 504 0
-1313 512 0
-176 1306 1307 1308 1309 1310 1311 1312 1313 0
-1314 508 0
-1314 511 0
-1315 508 0
-1315 511 0
-1316 509 0
-1316 510 0
-1317 509 0
-1317 510 0
-177 1314 1315 1316 1317 0
-1318 503 0
-1318 505 0
-1319 503 0
-1319 505 0
-1320 508 0
-1320 512 0
-1321 508 0
-1321 512 0
-178 1318 1319 1320 1321 0
-1322 506 0
-1322 510 0
-1323 506 0
-1323 510 0
-1324 508 0
-1324 513 0
-1325 508 0
-1325 513 0
-179 1322 1323 1324 1325 0
-1326 506 0
-1326 508 0
-1327 506 0
-1327 508 0
-1328 510 0
-1328 513 0
-1329 510 0
-1329 513 0
-180 1326 1327 1328 1329 0
-1330 516 0
-1330 518 0
-1331 516 0
-1331 518 0
-181 1330 1331 0
-182 0
-1332 514 0
-1332 518 0
-1333 514 0
-1333 518 0
-1334 517 0
-1334 529 0
-1335 517 0
-1335 529 0
-1336 520 0
-1336 521 0
-1337 520 0
-1337 521 0
-183 1332 1333 1334 1335 1336 1337 0
-1338 516 0
-1338 529 0
-1339 516 0
-1339 529 0
-1340 520 0
-1340 522 0
-1341 520 0
-1341 522 0
-184 1338 1339 1340 1341 0
-1342 518 0
-1342 534 0
-1343 518 0
-1343 534 0
-1344 520 0
-1344 525 0
-1345 520 0
-1345 525 0
-185 1342 1343 1344 1345 0
-1346 516 0
-1346 521 0
-1347 516 0
-1347 521 0
-1348 517 0
-1348 522 0
-1349 517 0
-1349 522 0
-1350 518 0
-1350 523 0
-1351 518 0
-1351 523 0
-1352 519 0
-1352 525 0
-1353 519 0
-1353 525 0
-186 1346 1347 1348 1349 1350 1351 1352 1353 0
-1354 516 0
-1354 520 0
-1355 516 0
-1355 520 0
-1356 522 0
-1356 529 0
-1357 522 0
-1357 529 0
-187 1354 1355 1356 1357 0
-188 0
-1358 519 0
-1358 520 0
-1359 519 0
-1359 520 0
-1360 523 0
-1360 534 0
-1361 523 0
-1361 534 0
-189 1358 1359 1360 1361 0
-1362 528 0
-1362 532 0
-1363 528 0
-1363 532 0
-1364 529 0
-1364 531 0
-1365 529 0
-1365 531 0
-190 1362 1363 1364 1365 0
-1366 516 0
-1366 517 0
-1367 516 0
-1367 517 0
-1368 521 0
-1368 522 0
-1369 521 0
-1369 522 0
-1370 527 0
-1370 531 0
-1371 527 0
-1371 531 0
-1372 528 0
-1372 536 0
-1373 528 0
-1373 536 0
-191 1366 1367 1368 1369 1370 1371 1372 1373 0
-1374 532 0
-1374 535 0
-1375 532 0
-1375 535 0
-1376 533 0
-1376 534 0
-1377 533 0
-1377 534 0
-192 1374 1375 1376 1377 0
-1378 527 0
-1378 529 0
-1379 527 0
-1379 529 0
-1380 532 0
-1380 536 0
-1381 532 0
-1381 536 0
-193 1378 1379 1380 1381 0
-1382 530 0
-1382 534 0
-1383 530 0
-1383 534 0
-1384 532 0
-1384 537 0
-1385 532 0
-1385 537 0
-194 1382 1383 1384 1385 0
-1386 530 0
-1386 532 0
-1387 530 0
-1387 532 0
-1388 534 0
-1388 537 0
-1389 534 0
-1389 537 0
-195 1386 1387 1388 1389 0
-1390 540 0
-1390 542 0
-1391 540 0
-1391 542 0
-196 1390 1391 0
-197 0
-1392 538 0
-1392 542 0
-1393 538 0
-1393 542 0
-1394 541 0
-1394 553 0
-1395 541 0
-1395 553 0
-1396 544 0
-1396 545 0
-1397 544 0
-1397 545 0
-198 1392 1393 1394 1395 1396 1397 0
-1398 540 0
-1398 553 0
-1399 540 0
-1399 553 0
-1400 544 0
-1400 546 0
-1401 544 0
-1401 546 0
-199 1398 1399 1400 1401 0
-1402 542 0
-1402 558 0
-1403 542 0
-1403 558 0
-1404 544 0
-1404 549 0
-1405 544 0
-1405 549 0
-200 1402 1403 1404 1405 0
-1406 540 0
-1406 545 0
-1407 540 0
-1407 545 0
-1408 541 0
-1408 546 0
-1409 541 0
-1409 546 0
-1410 542 0
-1410 547 0
-1411 542 0
-1411 547 0
-1412 543 0
-1412 549 0
-1413 543 0
-1413 549 0
-201 1406 1407 1408 1409 1410 1411 1412 1413 0
-1414 540 0
-1414 544 0
-1415 540 0
-1415 544 0
-1416 546 0
-1416 553 0
-1417 546 0
-1417 553 0
-202 1414 1415 1416 1417 0
-203 0
-1418 543 0
-1418 544 0
-1419 543 0
-1419 544 0
-1420 547 0
-1420 558 0
-1421 547 0
-1421 558 0
-204 1418 1419 1420 1421 0
-1422 552 0
-1422 556 0
-1423 552 0
-1423 556 0
-1424 553 0
-1424 555 0
-1425 553 0
-1425 555 0
-205 1422 1423 1424 1425 0
-1426 540 0
-1426 541 0
-1427 540 0
-1427 541 0
-1428 545 0
-1428 546 0
-1429 545 0
-1429 546 0
-1430 551 0
-1430 555 0
-1431 551 0
-1431 555 0
-1432 552 0
-1432 560 0
-1433 552 0
-1433 560 0
-206 1426 1427 1428 1429 1430 1431 1432 1433 0
-1434 556 0
-1434 559 0
-1435 556 0
-1435 559 0
-1436 557 0
-1436 558 0
-1437 557 0
-1437 558 0
-207 1434 1435 1436 1437 0
-1438 551 0
-1438 553 0
-1439 551 0
-1439 553 0
-1440 556 0
-1440 560 0
-1441 556 0
-1441 560 0
-208 1438 1439 1440 1441 0
-1442 554 0
-1442 558 0
-1443 554 0
-1443 558 0
-1444 556 0
-1444 561 0
-1445 556 0
-1445 561 0
-209 1442 1443 1444 1445 0
-1446 554 0
-1446 556 0
-1447 554 0
-1447 556 0
-1448 558 0
-1448 561 0
-1449 558 0
-1449 561 0
-210 1446 1447 1448 1449 0
-1450 564 0
-1450 566 0
-1451 564 0
-1451 566 0
-211 1450 1451 0
-212 0
-1452 562 0
-1452 566 0
-1453 562 0
-1453 566 0
-1454 565 0
-1454 577 0
-1455 565 0
-1455 577 0
-1456 568 0
-1456 569 0
-1457 568 0
-1457 569 0
-213 1452 1453 1454 1455 1456 1457 0
-1458 564 0
-1458 577 0
-1459 564 0
-1459 577 0
-1460 568 0
-1460 570 0
-1461 568 0
-1461 570 0
-214 1458 1459 1460 1461 0
-1462 566 0
-1462 582 0
-1463 566 0
-1463 582 0
-1464 568 0
-1464 573 0
-1465 568 0
-1465 573 0
-215 1462 1463 1464 1465 0
-1466 564 0
-1466 569 0
-1467 564 0
-1467 569 0
-1468 565 0
-1468 570 0
-1469 565 0
-1469 570 0
-1470 566 0
-1470 571 0
-1471 566 0
-1471 571 0
-1472 567 0
-1472 573 0
-1473 567 0
-1473 573 0
-216 1466 1467 1468 1469 1470 1471 1472 1473 0
-1474 564 0
-1474 568 0
-1475 564 0
-1475 568 0
-1476 570 0
-1476 577 0
-1477 570 0
-1477 577 0
-217 1474 1475 1476 1477 0
-218 0
-1478 567 0
-1478 568 0
-1479 567 0
-1479 568 0
-1480 571 0
-1480 582 0
-1481 571 0
-1481 582 0
-219 1478 1479 1480 1481 0
-1482 576 0
-1482 580 0
-1483 576 0
-1483 580 0
-1484 577 0
-1484 579 0
-1485 577 0
-1485 579 0
-220 1482 1483 1484 1485 0
-1486 564 0
-1486 565 0
-1487 564 0
-1487 565 0
-1488 569 0
-1488 570 0
-1489 569 0
-1489 570 0
-1490 575 0
-1490 579 0
-1491 575 0
-1491 579 0
-1492 576 0
-1492 584 0
-1493 576 0
-1493 584 0
-221 1486 1487 1488 1489 1490 1491 1492 1493 0
-1494 580 0
-1494 583 0
-1495 580 0
-1495 583 0
-1496 581 0
-1496 582 0
-1497 581 0
-1497 582 0
-222 1494 1495 1496 1497 0
-1498 575 0
-1498 577 0
-1499 575 0
-1499 577 0
-1500 580 0
-1500 584 0
-1501 580 0
-1501 584 0
-223 1498 1499 1500 1501 0
-1502 578 0
-1502 582 0
-1503 578 0
-1503 582 0
-1504 580 0
-1504 585 0
-1505 580 0
-1505 585 0
-224 1502 1503 1504 1505 0
-1506 578 0
-1506 580 0
-1507 578 0
-1507 580 0
-1508 582 0
-1508 585 0
-1509 582 0
-1509 585 0
-225 1506 1507 1508 1509 0
