p cnf 1689 4359
-1 -2 0
-1 -3 0
-1 -4 0
-1 -5 0
-1 -6 0
-1 -7 0
-1 -8 0
-1 -9 0
-1 -10 0
-1 -11 0
-1 -12 0
-1 -13 0
-1 -14 0
-1 -15 0
-2 -3 0
-2 -4 0
-2 -5 0
-2 -6 0
-2 -7 0
-2 -8 0
-2 -9 0
-2 -10 0
-2 -11 0
-2 -12 0
-2 -13 0
-2 -14 0
-2 -15 0
-3 -4 0
-3 -5 0
-3 -6 0
-3 -7 0
-3 -8 0
-3 -9 0
-3 -10 0
-3 -11 0
-3 -12 0
-3 -13 0
-3 -14 0
-3 -15 0
-4 -5 0
-4 -6 0
-4 -7 0
-4 -8 0
-4 -9 0
-4 -10 0
-4 -11 0
-4 -12 0
-4 -13 0
-4 -14 0
-4 -15 0
-5 -6 0
-5 -7 0
-5 -8 0
-5 -9 0
-5 -10 0
-5 -11 0
-5 -12 0
-5 -13 0
-5 -14 0
-5 -15 0
-6 -7 0
-6 -8 0
-6 -9 0
-6 -10 0
-6 -11 0
-6 -12 0
-6 -13 0
-6 -14 0
-6 -15 0
-7 -8 0
-7 -9 0
-7 -10 0
-7 -11 0
-7 -12 0
-7 -13 0
-7 -14 0
-7 -15 0
-8 -9 0
-8 -10 0
-8 -11 0
-8 -12 0
-8 -13 0
-8 -14 0
-8 -15 0
-9 -10 0
-9 -11 0
-9 -12 0
-9 -13 0
-9 -14 0
-9 -15 0
-10 -11 0
-10 -12 0
-10 -13 0
-10 -14 0
-10 -15 0
-11 -12 0
-11 -13 0
-11 -14 0
-11 -15 0
-12 -13 0
-12 -14 0
-12 -15 0
-13 -14 0
-13 -15 0
-14 -15 0
-250 226 1 0
-251 227 2 0
-252 228 3 0
-253 229 0
-254 230 4 0
-255 231 5 0
-256 232 6 0
-257 233 0
-258 234 7 0
-259 235 0
-260 236 8 0
-261 237 9 0
-262 238 0
-263 239 10 0
-264 240 0
-265 241 11 0
-266 242 12 0
-267 243 13 0
-268 244 0
-269 245 14 0
-270 246 0
-271 247 15 0
-272 248 0
-273 249 0
-16 -17 0
-16 -18 0
-16 -19 0
-16 -20 0
-16 -21 0
-16 -22 0
-16 -23 0
-16 -24 0
-16 -25 0
-16 -26 0
-16 -27 0
-16 -28 0
-16 -29 0
-16 -30 0
-17 -18 0
-17 -19 0
-17 -20 0
-17 -21 0
-17 -22 0
-17 -23 0
-17 -24 0
-17 -25 0
-17 -26 0
-17 -27 0
-17 -28 0
-17 -29 0
-17 -30 0
-18 -19 0
-18 -20 0
-18 -21 0
-18 -22 0
-18 -23 0
-18 -24 0
-18 -25 0
-18 -26 0
-18 -27 0
-18 -28 0
-18 -29 0
-18 -30 0
-19 -20 0
-19 -21 0
-19 -22 0
-19 -23 0
-19 -24 0
-19 -25 0
-19 -26 0
-19 -27 0
-19 -28 0
-19 -29 0
-19 -30 0
-20 -21 0
-20 -22 0
-20 -23 0
-20 -24 0
-20 -25 0
-20 -26 0
-20 -27 0
-20 -28 0
-20 -29 0
-20 -30 0
-21 -22 0
-21 -23 0
-21 -24 0
-21 -25 0
-21 -26 0
-21 -27 0
-21 -28 0
-21 -29 0
-21 -30 0
-22 -23 0
-22 -24 0
-22 -25 0
-22 -26 0
-22 -27 0
-22 -28 0
-22 -29 0
-22 -30 0
-23 -24 0
-23 -25 0
-23 -26 0
-23 -27 0
-23 -28 0
-23 -29 0
-23 -30 0
-24 -25 0
-24 -26 0
-24 -27 0
-24 -28 0
-24 -29 0
-24 -30 0
-25 -26 0
-25 -27 0
-25 -28 0
-25 -29 0
-25 -30 0
-26 -27 0
-26 -28 0
-26 -29 0
-26 -30 0
-27 -28 0
-27 -29 0
-27 -30 0
-28 -29 0
-28 -30 0
-29 -30 0
-274 250 16 0
-275 251 17 0
-276 252 18 0
-277 253 0
-278 254 19 0
-279 255 20 0
-280 256 21 0
-281 257 0
-282 258 22 0
-283 259 0
-284 260 23 0
-285 261 24 0
-286 262 0
-287 263 25 0
-288 264 0
-289 265 26 0
-290 266 27 0
-291 267 28 0
-292 268 0
-293 269 29 0
-294 270 0
-295 271 30 0
-296 272 0
-297 273 0
-31 -32 0
-31 -33 0
-31 -34 0
-31 -35 0
-31 -36 0
-31 -37 0
-31 -38 0
-31 -39 0
-31 -40 0
-31 -41 0
-31 -42 0
-31 -43 0
-31 -44 0
-31 -45 0
-32 -33 0
-32 -34 0
-32 -35 0
-32 -36 0
-32 -37 0
-32 -38 0
-32 -39 0
-32 -40 0
-32 -41 0
-32 -42 0
-32 -43 0
-32 -44 0
-32 -45 0
-33 -34 0
-33 -35 0
-33 -36 0
-33 -37 0
-33 -38 0
-33 -39 0
-33 -40 0
-33 -41 0
-33 -42 0
-33 -43 0
-33 -44 0
-33 -45 0
-34 -35 0
-34 -36 0
-34 -37 0
-34 -38 0
-34 -39 0
-34 -40 0
-34 -41 0
-34 -42 0
-34 -43 0
-34 -44 0
-34 -45 0
-35 -36 0
-35 -37 0
-35 -38 0
-35 -39 0
-35 -40 0
-35 -41 0
-35 -42 0
-35 -43 0
-35 -44 0
-35 -45 0
-36 -37 0
-36 -38 0
-36 -39 0
-36 -40 0
-36 -41 0
-36 -42 0
-36 -43 0
-36 -44 0
-36 -45 0
-37 -38 0
-37 -39 0
-37 -40 0
-37 -41 0
-37 -42 0
-37 -43 0
-37 -44 0
-37 -45 0
-38 -39 0
-38 -40 0
-38 -41 0
-38 -42 0
-38 -43 0
-38 -44 0
-38 -45 0
-39 -40 0
-39 -41 0
-39 -42 0
-39 -43 0
-39 -44 0
-39 -45 0
-40 -41 0
-40 -42 0
-40 -43 0
-40 -44 0
-40 -45 0
-41 -42 0
-41 -43 0
-41 -44 0
-41 -45 0
-42 -43 0
-42 -44 0
-42 -45 0
-43 -44 0
-43 -45 0
-44 -45 0
-298 274 31 0
-299 275 32 0
-300 276 33 0
-301 277 0
-302 278 34 0
-303 279 35 0
-304 280 36 0
-305 281 0
-306 282 37 0
-307 283 0
-308 284 38 0
-309 285 39 0
-310 286 0
-311 287 40 0
-312 288 0
-313 289 41 0
-314 290 42 0
-315 291 43 0
-316 292 0
-317 293 44 0
-318 294 0
-319 295 45 0
-320 296 0
-321 297 0
-46 -47 0
-46 -48 0
-46 -49 0
-46 -50 0
-46 -51 0
-46 -52 0
-46 -53 0
-46 -54 0
-46 -55 0
-46 -56 0
-46 -57 0
-46 -58 0
-46 -59 0
-46 -60 0
-47 -48 0
-47 -49 0
-47 -50 0
-47 -51 0
-47 -52 0
-47 -53 0
-47 -54 0
-47 -55 0
-47 -56 0
-47 -57 0
-47 -58 0
-47 -59 0
-47 -60 0
-48 -49 0
-48 -50 0
-48 -51 0
-48 -52 0
-48 -53 0
-48 -54 0
-48 -55 0
-48 -56 0
-48 -57 0
-48 -58 0
-48 -59 0
-48 -60 0
-49 -50 0
-49 -51 0
-49 -52 0
-49 -53 0
-49 -54 0
-49 -55 0
-49 -56 0
-49 -57 0
-49 -58 0
-49 -59 0
-49 -60 0
-50 -51 0
-50 -52 0
-50 -53 0
-50 -54 0
-50 -55 0
-50 -56 0
-50 -57 0
-50 -58 0
-50 -59 0
-50 -60 0
-51 -52 0
-51 -53 0
-51 -54 0
-51 -55 0
-51 -56 0
-51 -57 0
-51 -58 0
-51 -59 0
-51 -60 0
-52 -53 0
-52 -54 0
-52 -55 0
-52 -56 0
-52 -57 0
-52 -58 0
-52 -59 0
-52 -60 0
-53 -54 0
-53 -55 0
-53 -56 0
-53 -57 0
-53 -58 0
-53 -59 0
-53 -60 0
-54 -55 0
-54 -56 0
-54 -57 0
-54 -58 0
-54 -59 0
-54 -60 0
-55 -56 0
-55 -57 0
-55 -58 0
-55 -59 0
-55 -60 0
-56 -57 0
-56 -58 0
-56 -59 0
-56 -60 0
-57 -58 0
-57 -59 0
-57 -60 0
-58 -59 0
-58 -60 0
-59 -60 0
-322 298 46 0
-323 299 47 0
-324 300 48 0
-325 301 0
-326 302 49 0
-327 303 50 0
-328 304 51 0
-329 305 0
-330 306 52 0
-331 307 0
-332 308 53 0
-333 309 54 0
-334 310 0
-335 311 55 0
-336 312 0
-337 313 56 0
-338 314 57 0
-339 315 58 0
-340 316 0
-341 317 59 0
-342 318 0
-343 319 60 0
-344 320 0
-345 321 0
-61 -62 0
-61 -63 0
-61 -64 0
-61 -65 0
-61 -66 0
-61 -67 0
-61 -68 0
-61 -69 0
-61 -70 0
-61 -71 0
-61 -72 0
-61 -73 0
-61 -74 0
-61 -75 0
-62 -63 0
-62 -64 0
-62 -65 0
-62 -66 0
-62 -67 0
-62 -68 0
-62 -69 0
-62 -70 0
-62 -71 0
-62 -72 0
-62 -73 0
-62 -74 0
-62 -75 0
-63 -64 0
-63 -65 0
-63 -66 0
-63 -67 0
-63 -68 0
-63 -69 0
-63 -70 0
-63 -71 0
-63 -72 0
-63 -73 0
-63 -74 0
-63 -75 0
-64 -65 0
-64 -66 0
-64 -67 0
-64 -68 0
-64 -69 0
-64 -70 0
-64 -71 0
-64 -72 0
-64 -73 0
-64 -74 0
-64 -75 0
-65 -66 0
-65 -67 0
-65 -68 0
-65 -69 0
-65 -70 0
-65 -71 0
-65 -72 0
-65 -73 0
-65 -74 0
-65 -75 0
-66 -67 0
-66 -68 0
-66 -69 0
-66 -70 0
-66 -71 0
-66 -72 0
-66 -73 0
-66 -74 0
-66 -75 0
-67 -68 0
-67 -69 0
-67 -70 0
-67 -71 0
-67 -72 0
-67 -73 0
-67 -74 0
-67 -75 0
-68 -69 0
-68 -70 0
-68 -71 0
-68 -72 0
-68 -73 0
-68 -74 0
-68 -75 0
-69 -70 0
-69 -71 0
-69 -72 0
-69 -73 0
-69 -74 0
-69 -75 0
-70 -71 0
-70 -72 0
-70 -73 0
-70 -74 0
-70 -75 0
-71 -72 0
-71 -73 0
-71 -74 0
-71 -75 0
-72 -73 0
-72 -74 0
-72 -75 0
-73 -74 0
-73 -75 0
-74 -75 0
-346 322 61 0
-347 323 62 0
-348 324 63 0
-349 325 0
-350 326 64 0
-351 327 65 0
-352 328 66 0
-353 329 0
-354 330 67 0
-355 331 0
-356 332 68 0
-357 333 69 0
-358 334 0
-359 335 70 0
-360 336 0
-361 337 71 0
-362 338 72 0
-363 339 73 0
-364 340 0
-365 341 74 0
-366 342 0
-367 343 75 0
-368 344 0
-369 345 0
-76 -77 0
-76 -78 0
-76 -79 0
-76 -80 0
-76 -81 0
-76 -82 0
-76 -83 0
-76 -84 0
-76 -85 0
-76 -86 0
-76 -87 0
-76 -88 0
-76 -89 0
-76 -90 0
-77 -78 0
-77 -79 0
-77 -80 0
-77 -81 0
-77 -82 0
-77 -83 0
-77 -84 0
-77 -85 0
-77 -86 0
-77 -87 0
-77 -88 0
-77 -89 0
-77 -90 0
-78 -79 0
-78 -80 0
-78 -81 0
-78 -82 0
-78 -83 0
-78 -84 0
-78 -85 0
-78 -86 0
-78 -87 0
-78 -88 0
-78 -89 0
-78 -90 0
-79 -80 0
-79 -81 0
-79 -82 0
-79 -83 0
-79 -84 0
-79 -85 0
-79 -86 0
-79 -87 0
-79 -88 0
-79 -89 0
-79 -90 0
-80 -81 0
-80 -82 0
-80 -83 0
-80 -84 0
-80 -85 0
-80 -86 0
-80 -87 0
-80 -88 0
-80 -89 0
-80 -90 0
-81 -82 0
-81 -83 0
-81 -84 0
-81 -85 0
-81 -86 0
-81 -87 0
-81 -88 0
-81 -89 0
-81 -90 0
-82 -83 0
-82 -84 0
-82 -85 0
-82 -86 0
-82 -87 0
-82 -88 0
-82 -89 0
-82 -90 0
-83 -84 0
-83 -85 0
-83 -86 0
-83 -87 0
-83 -88 0
-83 -89 0
-83 -90 0
-84 -85 0
-84 -86 0
-84 -87 0
-84 -88 0
-84 -89 0
-84 -90 0
-85 -86 0
-85 -87 0
-85 -88 0
-85 -89 0
-85 -90 0
-86 -87 0
-86 -88 0
-86 -89 0
-86 -90 0
-87 -88 0
-87 -89 0
-87 -90 0
-88 -89 0
-88 -90 0
-89 -90 0
-370 346 76 0
-371 347 77 0
-372 348 78 0
-373 349 0
-374 350 79 0
-375 351 80 0
-376 352 81 0
-377 353 0
-378 354 82 0
-379 355 0
-380 356 83 0
-381 357 84 0
-382 358 0
-383 359 85 0
-384 360 0
-385 361 86 0
-386 362 87 0
-387 363 88 0
-388 364 0
-389 365 89 0
-390 366 0
-391 367 90 0
-392 368 0
-393 369 0
-91 -92 0
-91 -93 0
-91 -94 0
-91 -95 0
-91 -96 0
-91 -97 0
-91 -98 0
-91 -99 0
-91 -100 0
-91 -101 0
-91 -102 0
-91 -103 0
-91 -104 0
-91 -105 0
-92 -93 0
-92 -94 0
-92 -95 0
-92 -96 0
-92 -97 0
-92 -98 0
-92 -99 0
-92 -100 0
-92 -101 0
-92 -102 0
-92 -103 0
-92 -104 0
-92 -105 0
-93 -94 0
-93 -95 0
-93 -96 0
-93 -97 0
-93 -98 0
-93 -99 0
-93 -100 0
-93 -101 0
-93 -102 0
-93 -103 0
-93 -104 0
-93 -105 0
-94 -95 0
-94 -96 0
-94 -97 0
-94 -98 0
-94 -99 0
-94 -100 0
-94 -101 0
-94 -102 0
-94 -103 0
-94 -104 0
-94 -105 0
-95 -96 0
-95 -97 0
-95 -98 0
-95 -99 0
-95 -100 0
-95 -101 0
-95 -102 0
-95 -103 0
-95 -104 0
-95 -105 0
-96 -97 0
-96 -98 0
-96 -99 0
-96 -100 0
-96 -101 0
-96 -102 0
-96 -103 0
-96 -104 0
-96 -105 0
-97 -98 0
-97 -99 0
-97 -100 0
-97 -101 0
-97 -102 0
-97 -103 0
-97 -104 0
-97 -105 0
-98 -99 0
-98 -100 0
-98 -101 0
-98 -102 0
-98 -103 0
-98 -104 0
-98 -105 0
-99 -100 0
-99 -101 0
-99 -102 0
-99 -103 0
-99 -104 0
-99 -105 0
-100 -101 0
-100 -102 0
-100 -103 0
-100 -104 0
-100 -105 0
-101 -102 0
-101 -103 0
-101 -104 0
-101 -105 0
-102 -103 0
-102 -104 0
-102 -105 0
-103 -104 0
-103 -105 0
-104 -105 0
-394 370 91 0
-395 371 92 0
-396 372 93 0
-397 373 0
-398 374 94 0
-399 375 95 0
-400 376 96 0
-401 377 0
-402 378 97 0
-403 379 0
-404 380 98 0
-405 381 99 0
-406 382 0
-407 383 100 0
-408 384 0
-409 385 101 0
-410 386 102 0
-411 387 103 0
-412 388 0
-413 389 104 0
-414 390 0
-415 391 105 0
-416 392 0
-417 393 0
-106 -107 0
-106 -108 0
-106 -109 0
-106 -110 0
-106 -111 0
-106 -112 0
-106 -113 0
-106 -114 0
-106 -115 0
-106 -116 0
-106 -117 0
-106 -118 0
-106 -119 0
-106 -120 0
-107 -108 0
-107 -109 0
-107 -110 0
-107 -111 0
-107 -112 0
-107 -113 0
-107 -114 0
-107 -115 0
-107 -116 0
-107 -117 0
-107 -118 0
-107 -119 0
-107 -120 0
-108 -109 0
-108 -110 0
-108 -111 0
-108 -112 0
-108 -113 0
-108 -114 0
-108 -115 0
-108 -116 0
-108 -117 0
-108 -118 0
-108 -119 0
-108 -120 0
-109 -110 0
-109 -111 0
-109 -112 0
-109 -113 0
-109 -114 0
-109 -115 0
-109 -116 0
-109 -117 0
-109 -118 0
-109 -119 0
-109 -120 0
-110 -111 0
-110 -112 0
-110 -113 0
-110 -114 0
-110 -115 0
-110 -116 0
-110 -117 0
-110 -118 0
-110 -119 0
-110 -120 0
-111 -112 0
-111 -113 0
-111 -114 0
-111 -115 0
-111 -116 0
-111 -117 0
-111 -118 0
-111 -119 0
-111 -120 0
-112 -113 0
-112 -114 0
-112 -115 0
-112 -116 0
-112 -117 0
-112 -118 0
-112 -119 0
-112 -120 0
-113 -114 0
-113 -115 0
-113 -116 0
-113 -117 0
-113 -118 0
-113 -119 0
-113 -120 0
-114 -115 0
-114 -116 0
-114 -117 0
-114 -118 0
-114 -119 0
-114 -120 0
-115 -116 0
-115 -117 0
-115 -118 0
-115 -119 0
-115 -120 0
-116 -117 0
-116 -118 0
-116 -119 0
-116 -120 0
-117 -118 0
-117 -119 0
-117 -120 0
-118 -119 0
-118 -120 0
-119 -120 0
-418 394 106 0
-419 395 107 0
-420 396 108 0
-421 397 0
-422 398 109 0
-423 399 110 0
-424 400 111 0
-425 401 0
-426 402 112 0
-427 403 0
-428 404 113 0
-429 405 114 0
-430 406 0
-431 407 115 0
-432 408 0
-433 409 116 0
-434 410 117 0
-435 411 118 0
-436 412 0
-437 413 119 0
-438 414 0
-439 415 120 0
-440 416 0
-441 417 0
-121 -122 0
-121 -123 0
-121 -124 0
-121 -125 0
-121 -126 0
-121 -127 0
-121 -128 0
-121 -129 0
-121 -130 0
-121 -131 0
-121 -132 0
-121 -133 0
-121 -134 0
-121 -135 0
-122 -123 0
-122 -124 0
-122 -125 0
-122 -126 0
-122 -127 0
-122 -128 0
-122 -129 0
-122 -130 0
-122 -131 0
-122 -132 0
-122 -133 0
-122 -134 0
-122 -135 0
-123 -124 0
-123 -125 0
-123 -126 0
-123 -127 0
-123 -128 0
-123 -129 0
-123 -130 0
-123 -131 0
-123 -132 0
-123 -133 0
-123 -134 0
-123 -135 0
-124 -125 0
-124 -126 0
-124 -127 0
-124 -128 0
-124 -129 0
-124 -130 0
-124 -131 0
-124 -132 0
-124 -133 0
-124 -134 0
-124 -135 0
-125 -126 0
-125 -127 0
-125 -128 0
-125 -129 0
-125 -130 0
-125 -131 0
-125 -132 0
-125 -133 0
-125 -134 0
-125 -135 0
-126 -127 0
-126 -128 0
-126 -129 0
-126 -130 0
-126 -131 0
-126 -132 0
-126 -133 0
-126 -134 0
-126 -135 0
-127 -128 0
-127 -129 0
-127 -130 0
-127 -131 0
-127 -132 0
-127 -133 0
-127 -134 0
-127 -135 0
-128 -129 0
-128 -130 0
-128 -131 0
-128 -132 0
-128 -133 0
-128 -134 0
-128 -135 0
-129 -130 0
-129 -131 0
-129 -132 0
-129 -133 0
-129 -134 0
-129 -135 0
-130 -131 0
-130 -132 0
-130 -133 0
-130 -134 0
-130 -135 0
-131 -132 0
-131 -133 0
-131 -134 0
-131 -135 0
-132 -133 0
-132 -134 0
-132 -135 0
-133 -134 0
-133 -135 0
-134 -135 0
-442 418 121 0
-443 419 122 0
-444 420 123 0
-445 421 0
-446 422 124 0
-447 423 125 0
-448 424 126 0
-449 425 0
-450 426 127 0
-451 427 0
-452 428 128 0
-453 429 129 0
-454 430 0
-455 431 130 0
-456 432 0
-457 433 131 0
-458 434 132 0
-459 435 133 0
-460 436 0
-461 437 134 0
-462 438 0
-463 439 135 0
-464 440 0
-465 441 0
-136 -137 0
-136 -138 0
-136 -139 0
-136 -140 0
-136 -141 0
-136 -142 0
-136 -143 0
-136 -144 0
-136 -145 0
-136 -146 0
-136 -147 0
-136 -148 0
-136 -149 0
-136 -150 0
-137 -138 0
-137 -139 0
-137 -140 0
-137 -141 0
-137 -142 0
-137 -143 0
-137 -144 0
-137 -145 0
-137 -146 0
-137 -147 0
-137 -148 0
-137 -149 0
-137 -150 0
-138 -139 0
-138 -140 0
-138 -141 0
-138 -142 0
-138 -143 0
-138 -144 0
-138 -145 0
-138 -146 0
-138 -147 0
-138 -148 0
-138 -149 0
-138 -150 0
-139 -140 0
-139 -141 0
-139 -142 0
-139 -143 0
-139 -144 0
-139 -145 0
-139 -146 0
-139 -147 0
-139 -148 0
-139 -149 0
-139 -150 0
-140 -141 0
-140 -142 0
-140 -143 0
-140 -144 0
-140 -145 0
-140 -146 0
-140 -147 0
-140 -148 0
-140 -149 0
-140 -150 0
-141 -142 0
-141 -143 0
-141 -144 0
-141 -145 0
-141 -146 0
-141 -147 0
-141 -148 0
-141 -149 0
-141 -150 0
-142 -143 0
-142 -144 0
-142 -145 0
-142 -146 0
-142 -147 0
-142 -148 0
-142 -149 0
-142 -150 0
-143 -144 0
-143 -145 0
-143 -146 0
-143 -147 0
-143 -148 0
-143 -149 0
-143 -150 0
-144 -145 0
-144 -146 0
-144 -147 0
-144 -148 0
-144 -149 0
-144 -150 0
-145 -146 0
-145 -147 0
-145 -148 0
-145 -149 0
-145 -150 0
-146 -147 0
-146 -148 0
-146 -149 0
-146 -150 0
-147 -148 0
-147 -149 0
-147 -150 0
-148 -149 0
-148 -150 0
-149 -150 0
-466 442 136 0
-467 443 137 0
-468 444 138 0
-469 445 0
-470 446 139 0
-471 447 140 0
-472 448 141 0
-473 449 0
-474 450 142 0
-475 451 0
-476 452 143 0
-477 453 144 0
-478 454 0
-479 455 145 0
-480 456 0
-481 457 146 0
-482 458 147 0
-483 459 148 0
-484 460 0
-485 461 149 0
-486 462 0
-487 463 150 0
-488 464 0
-489 465 0
-151 -152 0
-151 -153 0
-151 -154 0
-151 -155 0
-151 -156 0
-151 -157 0
-151 -158 0
-151 -159 0
-151 -160 0
-151 -161 0
-151 -162 0
-151 -163 0
-151 -164 0
-151 -165 0
-152 -153 0
-152 -154 0
-152 -155 0
-152 -156 0
-152 -157 0
-152 -158 0
-152 -159 0
-152 -160 0
-152 -161 0
-152 -162 0
-152 -163 0
-152 -164 0
-152 -165 0
-153 -154 0
-153 -155 0
-153 -156 0
-153 -157 0
-153 -158 0
-153 -159 0
-153 -160 0
-153 -161 0
-153 -162 0
-153 -163 0
-153 -164 0
-153 -165 0
-154 -155 0
-154 -156 0
-154 -157 0
-154 -158 0
-154 -159 0
-154 -160 0
-154 -161 0
-154 -162 0
-154 -163 0
-154 -164 0
-154 -165 0
-155 -156 0
-155 -157 0
-155 -158 0
-155 -159 0
-155 -160 0
-155 -161 0
-155 -162 0
-155 -163 0
-155 -164 0
-155 -165 0
-156 -157 0
-156 -158 0
-156 -159 0
-156 -160 0
-156 -161 0
-156 -162 0
-156 -163 0
-156 -164 0
-156 -165 0
-157 -158 0
-157 -159 0
-157 -160 0
-157 -161 0
-157 -162 0
-157 -163 0
-157 -164 0
-157 -165 0
-158 -159 0
-158 -160 0
-158 -161 0
-158 -162 0
-158 -163 0
-158 -164 0
-158 -165 0
-159 -160 0
-159 -161 0
-159 -162 0
-159 -163 0
-159 -164 0
-159 -165 0
-160 -161 0
-160 -162 0
-160 -163 0
-160 -164 0
-160 -165 0
-161 -162 0
-161 -163 0
-161 -164 0
-161 -165 0
-162 -163 0
-162 -164 0
-162 -165 0
-163 -164 0
-163 -165 0
-164 -165 0
-490 466 151 0
-491 467 152 0
-492 468 153 0
-493 469 0
-494 470 154 0
-495 471 155 0
-496 472 156 0
-497 473 0
-498 474 157 0
-499 475 0
-500 476 158 0
-501 477 159 0
-502 478 0
-503 479 160 0
-504 480 0
-505 481 161 0
-506 482 162 0
-507 483 163 0
-508 484 0
-509 485 164 0
-510 486 0
-511 487 165 0
-512 488 0
-513 489 0
-166 -167 0
-166 -168 0
-166 -169 0
-166 -170 0
-166 -171 0
-166 -172 0
-166 -173 0
-166 -174 0
-166 -175 0
-166 -176 0
-166 -177 0
-166 -178 0
-166 -179 0
-166 -180 0
-167 -168 0
-167 -169 0
-167 -170 0
-167 -171 0
-167 -172 0
-167 -173 0
-167 -174 0
-167 -175 0
-167 -176 0
-167 -177 0
-167 -178 0
-167 -179 0
-167 -180 0
-168 -169 0
-168 -170 0
-168 -171 0
-168 -172 0
-168 -173 0
-168 -174 0
-168 -175 0
-168 -176 0
-168 -177 0
-168 -178 0
-168 -179 0
-168 -180 0
-169 -170 0
-169 -171 0
-169 -172 0
-169 -173 0
-169 -174 0
-169 -175 0
-169 -176 0
-169 -177 0
-169 -178 0
-169 -179 0
-169 -180 0
-170 -171 0
-170 -172 0
-170 -173 0
-170 -174 0
-170 -175 0
-170 -176 0
-170 -177 0
-170 -178 0
-170 -179 0
-170 -180 0
-171 -172 0
-171 -173 0
-171 -174 0
-171 -175 0
-171 -176 0
-171 -177 0
-171 -178 0
-171 -179 0
-171 -180 0
-172 -173 0
-172 -174 0
-172 -175 0
-172 -176 0
-172 -177 0
-172 -178 0
-172 -179 0
-172 -180 0
-173 -174 0
-173 -175 0
-173 -176 0
-173 -177 0
-173 -178 0
-173 -179 0
-173 -180 0
-174 -175 0
-174 -176 0
-174 -177 0
-174 -178 0
-174 -179 0
-174 -180 0
-175 -176 0
-175 -177 0
-175 -178 0
-175 -179 0
-175 -180 0
-176 -177 0
-176 -178 0
-176 -179 0
-176 -180 0
-177 -178 0
-177 -179 0
-177 -180 0
-178 -179 0
-178 -180 0
-179 -180 0
-514 490 166 0
-515 491 167 0
-516 492 168 0
-517 493 0
-518 494 169 0
-519 495 170 0
-520 496 171 0
-521 497 0
-522 498 172 0
-523 499 0
-524 500 173 0
-525 501 174 0
-526 502 0
-527 503 175 0
-528 504 0
-529 505 176 0
-530 506 177 0
-531 507 178 0
-532 508 0
-533 509 179 0
-534 510 0
-535 511 180 0
-536 512 0
-537 513 0
-181 -182 0
-181 -183 0
-181 -184 0
-181 -185 0
-181 -186 0
-181 -187 0
-181 -188 0
-181 -189 0
-181 -190 0
-181 -191 0
-181 -192 0
-181 -193 0
-181 -194 0
-181 -195 0
-182 -183 0
-182 -184 0
-182 -185 0
-182 -186 0
-182 -187 0
-182 -188 0
-182 -189 0
-182 -190 0
-182 -191 0
-182 -192 0
-182 -193 0
-182 -194 0
-182 -195 0
-183 -184 0
-183 -185 0
-183 -186 0
-183 -187 0
-183 -188 0
-183 -189 0
-183 -190 0
-183 -191 0
-183 -192 0
-183 -193 0
-183 -194 0
-183 -195 0
-184 -185 0
-184 -186 0
-184 -187 0
-184 -188 0
-184 -189 0
-184 -190 0
-184 -191 0
-184 -192 0
-184 -193 0
-184 -194 0
-184 -195 0
-185 -186 0
-185 -187 0
-185 -188 0
-185 -189 0
-185 -190 0
-185 -191 0
-185 -192 0
-185 -193 0
-185 -194 0
-185 -195 0
-186 -187 0
-186 -188 0
-186 -189 0
-186 -190 0
-186 -191 0
-186 -192 0
-186 -193 0
-186 -194 0
-186 -195 0
-187 -188 0
-187 -189 0
-187 -190 0
-187 -191 0
-187 -192 0
-187 -193 0
-187 -194 0
-187 -195 0
-188 -189 0
-188 -190 0
-188 -191 0
-188 -192 0
-188 -193 0
-188 -194 0
-188 -195 0
-189 -190 0
-189 -191 0
-189 -192 0
-189 -193 0
-189 -194 0
-189 -195 0
-190 -191 0
-190 -192 0
-190 -193 0
-190 -194 0
-190 -195 0
-191 -192 0
-191 -193 0
-191 -194 0
-191 -195 0
-192 -193 0
-192 -194 0
-192 -195 0
-193 -194 0
-193 -195 0
-194 -195 0
-538 514 181 0
-539 515 182 0
-540 516 183 0
-541 517 0
-542 518 184 0
-543 519 185 0
-544 520 186 0
-545 521 0
-546 522 187 0
-547 523 0
-548 524 188 0
-549 525 189 0
-550 526 0
-551 527 190 0
-552 528 0
-553 529 191 0
-554 530 192 0
-555 531 193 0
-556 532 0
-557 533 194 0
-558 534 0
-559 535 195 0
-560 536 0
-561 537 0
-196 -197 0
-196 -198 0
-196 -199 0
-196 -200 0
-196 -201 0
-196 -202 0
-196 -203 0
-196 -204 0
-196 -205 0
-196 -206 0
-196 -207 0
-196 -208 0
-196 -209 0
-196 -210 0
-197 -198 0
-197 -199 0
-197 -200 0
-197 -201 0
-197 -202 0
-197 -203 0
-197 -204 0
-197 -205 0
-197 -206 0
-197 -207 0
-197 -208 0
-197 -209 0
-197 -210 0
-198 -199 0
-198 -200 0
-198 -201 0
-198 -202 0
-198 -203 0
-198 -204 0
-198 -205 0
-198 -206 0
-198 -207 0
-198 -208 0
-198 -209 0
-198 -210 0
-199 -200 0
-199 -201 0
-199 -202 0
-199 -203 0
-199 -204 0
-199 -205 0
-199 -206 0
-199 -207 0
-199 -208 0
-199 -209 0
-199 -210 0
-200 -201 0
-200 -202 0
-200 -203 0
-200 -204 0
-200 -205 0
-200 -206 0
-200 -207 0
-200 -208 0
-200 -209 0
-200 -210 0
-201 -202 0
-201 -203 0
-201 -204 0
-201 -205 0
-201 -206 0
-201 -207 0
-201 -208 0
-201 -209 0
-201 -210 0
-202 -203 0
-202 -204 0
-202 -205 0
-202 -206 0
-202 -207 0
-202 -208 0
-202 -209 0
-202 -210 0
-203 -204 0
-203 -205 0
-203 -206 0
-203 -207 0
-203 -208 0
-203 -209 0
-203 -210 0
-204 -205 0
-204 -206 0
-204 -207 0
-204 -208 0
-204 -209 0
-204 -210 0
-205 -206 0
-205 -207 0
-205 -208 0
-205 -209 0
-205 -210 0
-206 -207 0
-206 -208 0
-206 -209 0
-206 -210 0
-207 -208 0
-207 -209 0
-207 -210 0
-208 -209 0
-208 -210 0
-209 -210 0
-562 538 196 0
-563 539 197 0
-564 540 198 0
-565 541 0
-566 542 199 0
-567 543 200 0
-568 544 201 0
-569 545 0
-570 546 202 0
-571 547 0
-572 548 203 0
-573 549 204 0
-574 550 0
-575 551 205 0
-576 552 0
-577 553 206 0
-578 554 207 0
-579 555 208 0
-580 556 0
-581 557 209 0
-582 558 0
-583 559 210 0
-584 560 0
-585 561 0
-211 -212 0
-211 -213 0
-211 -214 0
-211 -215 0
-211 -216 0
-211 -217 0
-211 -218 0
-211 -219 0
-211 -220 0
-211 -221 0
-211 -222 0
-211 -223 0
-211 -224 0
-211 -225 0
-212 -213 0
-212 -214 0
-212 -215 0
-212 -216 0
-212 -217 0
-212 -218 0
-212 -219 0
-212 -220 0
-212 -221 0
-212 -222 0
-212 -223 0
-212 -224 0
-212 -225 0
-213 -214 0
-213 -215 0
-213 -216 0
-213 -217 0
-213 -218 0
-213 -219 0
-213 -220 0
-213 -221 0
-213 -222 0
-213 -223 0
-213 -224 0
-213 -225 0
-214 -215 0
-214 -216 0
-214 -217 0
-214 -218 0
-214 -219 0
-214 -220 0
-214 -221 0
-214 -222 0
-214 -223 0
-214 -224 0
-214 -225 0
-215 -216 0
-215 -217 0
-215 -218 0
-215 -219 0
-215 -220 0
-215 -221 0
-215 -222 0
-215 -223 0
-215 -224 0
-215 -225 0
-216 -217 0
-216 -218 0
-216 -219 0
-216 -220 0
-216 -221 0
-216 -222 0
-216 -223 0
-216 -224 0
-216 -225 0
-217 -218 0
-217 -219 0
-217 -220 0
-217 -221 0
-217 -222 0
-217 -223 0
-217 -224 0
-217 -225 0
-218 -219 0
-218 -220 0
-218 -221 0
-218 -222 0
-218 -223 0
-218 -224 0
-218 -225 0
-219 -220 0
-219 -221 0
-219 -222 0
-219 -223 0
-219 -224 0
-219 -225 0
-220 -221 0
-220 -222 0
-220 -223 0
-220 -224 0
-220 -225 0
-221 -222 0
-221 -223 0
-221 -224 0
-221 -225 0
-222 -223 0
-222 -224 0
-222 -225 0
-223 -224 0
-223 -225 0
-224 -225 0
-586 562 211 0
-587 563 212 0
-588 564 213 0
-589 565 0
-590 566 214 0
-591 567 215 0
-592 568 216 0
-593 569 0
-594 570 217 0
-595 571 0
-596 572 218 0
-597 573 219 0
-598 574 0
-599 575 220 0
-600 576 0
-601 577 221 0
-602 578 222 0
-603 579 223 0
-604 580 0
-605 581 224 0
-606 582 0
-607 583 225 0
-608 584 0
-609 585 0
-226 0
-227 0
-228 0
229 0
-230 0
-231 0
-232 0
233 0
-234 0
235 0
-236 0
-237 0
238 0
-239 0
240 0
-241 0
-242 0
-243 0
244 0
-245 0
246 0
-247 0
248 0
249 0
1 16 31 46 61 76 91 106 121 136 151 166 181 196 211 0
2 17 32 47 62 77 92 107 122 137 152 167 182 197 212 0
3 18 33 48 63 78 93 108 123 138 153 168 183 198 213 0
4 19 34 49 64 79 94 109 124 139 154 169 184 199 214 0
5 20 35 50 65 80 95 110 125 140 155 170 185 200 215 0
6 21 36 51 66 81 96 111 126 141 156 171 186 201 216 0
7 22 37 52 67 82 97 112 127 142 157 172 187 202 217 0
8 23 38 53 68 83 98 113 128 143 158 173 188 203 218 0
9 24 39 54 69 84 99 114 129 144 159 174 189 204 219 0
10 25 40 55 70 85 100 115 130 145 160 175 190 205 220 0
11 26 41 56 71 86 101 116 131 146 161 176 191 206 221 0
12 27 42 57 72 87 102 117 132 147 162 177 192 207 222 0
13 28 43 58 73 88 103 118 133 148 163 178 193 208 223 0
14 29 44 59 74 89 104 119 134 149 164 179 194 209 224 0
15 30 45 60 75 90 105 120 135 150 165 180 195 210 225 0
-1 0
-610 228 0
-610 241 0
-611 228 0
-611 241 0
-612 231 0
-612 232 0
-613 231 0
-613 232 0
-2 610 611 612 613 0
-614 227 0
-614 241 0
-615 227 0
-615 241 0
-616 231 0
-616 233 0
-617 231 0
-617 233 0
-3 614 615 616 617 0
-618 229 0
-618 246 0
-619 229 0
-619 246 0
-620 231 0
-620 237 0
-621 231 0
-621 237 0
-4 618 619 620 621 0
-622 227 0
-622 232 0
-623 227 0
-623 232 0
-624 228 0
-624 233 0
-625 228 0
-625 233 0
-626 229 0
-626 235 0
-627 229 0
-627 235 0
-628 230 0
-628 237 0
-629 230 0
-629 237 0
-5 622 623 624 625 626 627 628 629 0
-630 227 0
-630 231 0
-631 227 0
-631 231 0
-632 233 0
-632 241 0
-633 233 0
-633 241 0
-6 630 631 632 633 0
-634 235 0
-634 245 0
-635 235 0
-635 245 0
-636 236 0
-636 243 0
-637 236 0
-637 243 0
-638 237 0
-638 242 0
-639 237 0
-639 242 0
-7 634 635 636 637 638 639 0
-640 234 0
-640 243 0
-641 234 0
-641 243 0
-8 640 641 0
-642 230 0
-642 231 0
-643 230 0
-643 231 0
-644 234 0
-644 242 0
-645 234 0
-645 242 0
-646 235 0
-646 246 0
-647 235 0
-647 246 0
-9 642 643 644 645 646 647 0
-648 240 0
-648 244 0
-649 240 0
-649 244 0
-650 241 0
-650 243 0
-651 241 0
-651 243 0
-10 648 649 650 651 0
-652 227 0
-652 228 0
-653 227 0
-653 228 0
-654 232 0
-654 233 0
-655 232 0
-655 233 0
-656 239 0
-656 243 0
-657 239 0
-657 243 0
-658 240 0
-658 248 0
-659 240 0
-659 248 0
-11 652 653 654 655 656 657 658 659 0
-660 234 0
-660 237 0
-661 234 0
-661 237 0
-662 244 0
-662 247 0
-663 244 0
-663 247 0
-664 245 0
-664 246 0
-665 245 0
-665 246 0
-12 660 661 662 663 664 665 0
-666 234 0
-666 236 0
-667 234 0
-667 236 0
-668 239 0
-668 241 0
-669 239 0
-669 241 0
-670 244 0
-670 248 0
-671 244 0
-671 248 0
-13 666 667 668 669 670 671 0
-672 234 0
-672 235 0
-673 234 0
-673 235 0
-674 242 0
-674 246 0
-675 242 0
-675 246 0
-676 244 0
-676 249 0
-677 244 0
-677 249 0
-14 672 673 674 675 676 677 0
-678 242 0
-678 244 0
-679 242 0
-679 244 0
-680 246 0
-680 249 0
-681 246 0
-681 249 0
-15 678 679 680 681 0
-16 0
-682 252 0
-682 265 0
-683 252 0
-683 265 0
-684 255 0
-684 256 0
-685 255 0
-685 256 0
-17 682 683 684 685 0
-686 251 0
-686 265 0
-687 251 0
-687 265 0
-688 255 0
-688 257 0
-689 255 0
-689 257 0
-18 686 687 688 689 0
-690 253 0
-690 270 0
-691 253 0
-691 270 0
-692 255 0
-692 261 0
-693 255 0
-693 261 0
-19 690 691 692 693 0
-694 251 0
-694 256 0
-695 251 0
-695 256 0
-696 252 0
-696 257 0
-697 252 0
-697 257 0
-698 253 0
-698 259 0
-699 253 0
-699 259 0
-700 254 0
-700 261 0
-701 254 0
-701 261 0
-20 694 695 696 697 698 699 700 701 0
-702 251 0
-702 255 0
-703 251 0
-703 255 0
-704 257 0
-704 265 0
-705 257 0
-705 265 0
-21 702 703 704 705 0
-706 259 0
-706 269 0
-707 259 0
-707 269 0
-708 260 0
-708 267 0
-709 260 0
-709 267 0
-710 261 0
-710 266 0
-711 261 0
-711 266 0
-22 706 707 708 709 710 711 0
-712 258 0
-712 267 0
-713 258 0
-713 267 0
-23 712 713 0
-714 254 0
-714 255 0
-715 254 0
-715 255 0
-716 258 0
-716 266 0
-717 258 0
-717 266 0
-718 259 0
-718 270 0
-719 259 0
-719 270 0
-24 714 715 716 717 718 719 0
-720 264 0
-720 268 0
-721 264 0
-721 268 0
-722 265 0
-722 267 0
-723 265 0
-723 267 0
-25 720 721 722 723 0
-724 251 0
-724 252 0
-725 251 0
-725 252 0
-726 256 0
-726 257 0
-727 256 0
-727 257 0
-728 263 0
-728 267 0
-729 263 0
-729 267 0
-730 264 0
-730 272 0
-731 264 0
-731 272 0
-26 724 725 726 727 728 729 730 731 0
-732 258 0
-732 261 0
-733 258 0
-733 261 0
-734 268 0
-734 271 0
-735 268 0
-735 271 0
-736 269 0
-736 270 0
-737 269 0
-737 270 0
-27 732 733 734 735 736 737 0
-738 258 0
-738 260 0
-739 258 0
-739 260 0
-740 263 0
-740 265 0
-741 263 0
-741 265 0
-742 268 0
-742 272 0
-743 268 0
-743 272 0
-28 738 739 740 741 742 743 0
-744 258 0
-744 259 0
-745 258 0
-745 259 0
-746 266 0
-746 270 0
-747 266 0
-747 270 0
-748 268 0
-748 273 0
-749 268 0
-749 273 0
-29 744 745 746 747 748 749 0
-750 266 0
-750 268 0
-751 266 0
-751 268 0
-752 270 0
-752 273 0
-753 270 0
-753 273 0
-30 750 751 752 753 0
-31 0
-754 276 0
-754 289 0
-755 276 0
-755 289 0
-756 279 0
-756 280 0
-757 279 0
-757 280 0
-32 754 755 756 757 0
-758 275 0
-758 289 0
-759 275 0
-759 289 0
-760 279 0
-760 281 0
-761 279 0
-761 281 0
-33 758 759 760 761 0
-762 277 0
-762 294 0
-763 277 0
-763 294 0
-764 279 0
-764 285 0
-765 279 0
-765 285 0
-34 762 763 764 765 0
-766 275 0
-766 280 0
-767 275 0
-767 280 0
-768 276 0
-768 281 0
-769 276 0
-769 281 0
-770 277 0
-770 283 0
-771 277 0
-771 283 0
-772 278 0
-772 285 0
-773 278 0
-773 285 0
-35 766 767 768 769 770 771 772 773 0
-774 275 0
-774 279 0
-775 275 0
-775 279 0
-776 281 0
-776 289 0
-777 281 0
-777 289 0
-36 774 775 776 777 0
-778 283 0
-778 293 0
-779 283 0
-779 293 0
-780 284 0
-780 291 0
-781 284 0
-781 291 0
-782 285 0
-782 290 0
-783 285 0
-783 290 0
-37 778 779 780 781 782 783 0
-784 282 0
-784 291 0
-785 282 0
-785 291 0
-38 784 785 0
-786 278 0
-786 279 0
-787 278 0
-787 279 0
-788 282 0
-788 290 0
-789 282 0
-789 290 0
-790 283 0
-790 294 0
-791 283 0
-791 294 0
-39 786 787 788 789 790 791 0
-792 288 0
-792 292 0
-793 288 0
-793 292 0
-794 289 0
-794 291 0
-795 289 0
-795 291 0
-40 792 793 794 795 0
-796 275 0
-796 276 0
-797 275 0
-797 276 0
-798 280 0
-798 281 0
-799 280 0
-799 281 0
-800 287 0
-800 291 0
-801 287 0
-801 291 0
-802 288 0
-802 296 0
-803 288 0
-803 296 0
-41 796 797 798 799 800 801 802 803 0
-804 282 0
-804 285 0
-805 282 0
-805 285 0
-806 292 0
-806 295 0
-807 292 0
-807 295 0
-808 293 0
-808 294 0
-809 293 0
-809 294 0
-42 804 805 806 807 808 809 0
-810 282 0
-810 284 0
-811 282 0
-811 284 0
-812 287 0
-812 289 0
-813 287 0
-813 289 0
-814 292 0
-814 296 0
-815 292 0
-815 296 0
-43 810 811 812 813 814 815 0
-816 282 0
-816 283 0
-817 282 0
-817 283 0
-818 290 0
-818 294 0
-819 290 0
-819 294 0
-820 292 0
-820 297 0
-821 292 0
-821 297 0
-44 816 817 818 819 820 821 0
-822 290 0
-822 292 0
-823 290 0
-823 292 0
-824 294 0
-824 297 0
-825 294 0
-825 297 0
-45 822 823 824 825 0
-46 0
-826 300 0
-826 313 0
-827 300 0
-827 313 0
-828 303 0
-828 304 0
-829 303 0
-829 304 0
-47 826 827 828 829 0
-830 299 0
-830 313 0
-831 299 0
-831 313 0
-832 303 0
-832 305 0
-833 303 0
-833 305 0
-48 830 831 832 833 0
-834 301 0
-834 318 0
-835 301 0
-835 318 0
-836 303 0
-836 309 0
-837 303 0
-837 309 0
-49 834 835 836 837 0
-838 299 0
-838 304 0
-839 299 0
-839 304 0
-840 300 0
-840 305 0
-841 300 0
-841 305 0
-842 301 0
-842 307 0
-843 301 0
-843 307 0
-844 302 0
-844 309 0
-845 302 0
-845 309 0
-50 838 839 840 841 842 843 844 845 0
-846 299 0
-846 303 0
-847 299 0
-847 303 0
-848 305 0
-848 313 0
-849 305 0
-849 313 0
-51 846 847 848 849 0
-850 307 0
-850 317 0
-851 307 0
-851 317 0
-852 308 0
-852 315 0
-853 308 0
-853 315 0
-854 309 0
-854 314 0
-855 309 0
-855 314 0
-52 850 851 852 853 854 855 0
-856 306 0
-856 315 0
-857 306 0
-857 315 0
-53 856 857 0
-858 302 0
-858 303 0
-859 302 0
-859 303 0
-860 306 0
-860 314 0
-861 306 0
-861 314 0
-862 307 0
-862 318 0
-863 307 0
-863 318 0
-54 858 859 860 861 862 863 0
-864 312 0
-864 316 0
-865 312 0
-865 316 0
-866 313 0
-866 315 0
-867 313 0
-867 315 0
-55 864 865 866 867 0
-868 299 0
-868 300 0
-869 299 0
-869 300 0
-870 304 0
-870 305 0
-871 304 0
-871 305 0
-872 311 0
-872 315 0
-873 311 0
-873 315 0
-874 312 0
-874 320 0
-875 312 0
-875 320 0
-56 868 869 870 871 872 873 874 875 0
-876 306 0
-876 309 0
-877 306 0
-877 309 0
-878 316 0
-878 319 0
-879 316 0
-879 319 0
-880 317 0
-880 318 0
-881 317 0
-881 318 0
-57 876 877 878 879 880 881 0
-882 306 0
-882 308 0
-883 306 0
-883 308 0
-884 311 0
-884 313 0
-885 311 0
-885 313 0
-886 316 0
-886 320 0
-887 316 0
-887 320 0
-58 882 883 884 885 886 887 0
-888 306 0
-888 307 0
-889 306 0
-889 307 0
-890 314 0
-890 318 0
-891 314 0
-891 318 0
-892 316 0
-892 321 0
-893 316 0
-893 321 0
-59 888 889 890 891 892 893 0
-894 314 0
-894 316 0
-895 314 0
-895 316 0
-896 318 0
-896 321 0
-897 318 0
-897 321 0
-60 894 895 896 897 0
-61 0
-898 324 0
-898 337 0
-899 324 0
-899 337 0
-900 327 0
-900 328 0
-901 327 0
-901 328 0
-62 898 899 900 901 0
-902 323 0
-902 337 0
-903 323 0
-903 337 0
-904 327 0
-904 329 0
-905 327 0
-905 329 0
-63 902 903 904 905 0
-906 325 0
-906 342 0
-907 325 0
-907 342 0
-908 327 0
-908 333 0
-909 327 0
-909 333 0
-64 906 907 908 909 0
-910 323 0
-910 328 0
-911 323 0
-911 328 0
-912 324 0
-912 329 0
-913 324 0
-913 329 0
-914 325 0
-914 331 0
-915 325 0
-915 331 0
-916 326 0
-916 333 0
-917 326 0
-917 333 0
-65 910 911 912 913 914 915 916 917 0
-918 323 0
-918 327 0
-919 323 0
-919 327 0
-920 329 0
-920 337 0
-921 329 0
-921 337 0
-66 918 919 920 921 0
-922 331 0
-922 341 0
-923 331 0
-923 341 0
-924 332 0
-924 339 0
-925 332 0
-925 339 0
-926 333 0
-926 338 0
-927 333 0
-927 338 0
-67 922 923 924 925 926 927 0
-928 330 0
-928 339 0
-929 330 0
-929 339 0
-68 928 929 0
-930 326 0
-930 327 0
-931 326 0
-931 327 0
-932 330 0
-932 338 0
-933 330 0
-933 338 0
-934 331 0
-934 342 0
-935 331 0
-935 342 0
-69 930 931 932 933 934 935 0
-936 336 0
-936 340 0
-937 336 0
-937 340 0
-938 337 0
-938 339 0
-939 337 0
-939 339 0
-70 936 937 938 939 0
-940 323 0
-940 324 0
-941 323 0
-941 324 0
-942 328 0
-942 329 0
-943 328 0
-943 329 0
-944 335 0
-944 339 0
-945 335 0
-945 339 0
-946 336 0
-946 344 0
-947 336 0
-947 344 0
-71 940 941 942 943 944 945 946 947 0
-948 330 0
-948 333 0
-949 330 0
-949 333 0
-950 340 0
-950 343 0
-951 340 0
-951 343 0
-952 341 0
-952 342 0
-953 341 0
-953 342 0
-72 948 949 950 951 952 953 0
-954 330 0
-954 332 0
-955 330 0
-955 332 0
-956 335 0
-956 337 0
-957 335 0
-957 337 0
-958 340 0
-958 344 0
-959 340 0
-959 344 0
-73 954 955 956 957 958 959 0
-960 330 0
-960 331 0
-961 330 0
-961 331 0
-962 338 0
-962 342 0
-963 338 0
-963 342 0
-964 340 0
-964 345 0
-965 340 0
-965 345 0
-74 960 961 962 963 964 965 0
-966 338 0
-966 340 0
-967 338 0
-967 340 0
-968 342 0
-968 345 0
-969 342 0
-969 345 0
-75 966 967 968 969 0
-76 0
-970 348 0
-970 361 0
-971 348 0
-971 361 0
-972 351 0
-972 352 0
-973 351 0
-973 352 0
-77 970 971 972 973 0
-974 347 0
-974 361 0
-975 347 0
-975 361 0
-976 351 0
-976 353 0
-977 351 0
-977 353 0
-78 974 975 976 977 0
-978 349 0
-978 366 0
-979 349 0
-979 366 0
-980 351 0
-980 357 0
-981 351 0
-981 357 0
-79 978 979 980 981 0
-982 347 0
-982 352 0
-983 347 0
-983 352 0
-984 348 0
-984 353 0
-985 348 0
-985 353 0
-986 349 0
-986 355 0
-987 349 0
-987 355 0
-988 350 0
-988 357 0
-989 350 0
-989 357 0
-80 982 983 984 985 986 987 988 989 0
-990 347 0
-990 351 0
-991 347 0
-991 351 0
-992 353 0
-992 361 0
-993 353 0
-993 361 0
-81 990 991 992 993 0
-994 355 0
-994 365 0
-995 355 0
-995 365 0
-996 356 0
-996 363 0
-997 356 0
-997 363 0
-998 357 0
-998 362 0
-999 357 0
-999 362 0
-82 994 995 996 997 998 999 0
-1000 354 0
-1000 363 0
-1001 354 0
-1001 363 0
-83 1000 1001 0
-1002 350 0
-1002 351 0
-1003 350 0
-1003 351 0
-1004 354 0
-1004 362 0
-1005 354 0
-1005 362 0
-1006 355 0
-1006 366 0
-1007 355 0
-1007 366 0
-84 1002 1003 1004 1005 1006 1007 0
-1008 360 0
-1008 364 0
-1009 360 0
-1009 364 0
-1010 361 0
-1010 363 0
-1011 361 0
-1011 363 0
-85 1008 1009 1010 1011 0
-1012 347 0
-1012 348 0
-1013 347 0
-1013 348 0
-1014 352 0
-1014 353 0
-1015 352 0
-1015 353 0
-1016 359 0
-1016 363 0
-1017 359 0
-1017 363 0
-1018 360 0
-1018 368 0
-1019 360 0
-1019 368 0
-86 1012 1013 1014 1015 1016 1017 1018 1019 0
-1020 354 0
-1020 357 0
-1021 354 0
-1021 357 0
-1022 364 0
-1022 367 0
-1023 364 0
-1023 367 0
-1024 365 0
-1024 366 0
-1025 365 0
-1025 366 0
-87 1020 1021 1022 1023 1024 1025 0
-1026 354 0
-1026 356 0
-1027 354 0
-1027 356 0
-1028 359 0
-1028 361 0
-1029 359 0
-1029 361 0
-1030 364 0
-1030 368 0
-1031 364 0
-1031 368 0
-88 1026 1027 1028 1029 1030 1031 0
-1032 354 0
-1032 355 0
-1033 354 0
-1033 355 0
-1034 362 0
-1034 366 0
-1035 362 0
-1035 366 0
-1036 364 0
-1036 369 0
-1037 364 0
-1037 369 0
-89 1032 1033 1034 1035 1036 1037 0
-1038 362 0
-1038 364 0
-1039 362 0
-1039 364 0
-1040 366 0
-1040 369 0
-1041 366 0
-1041 369 0
-90 1038 1039 1040 1041 0
-91 0
-1042 372 0
-1042 385 0
-1043 372 0
-1043 385 0
-1044 375 0
-1044 376 0
-1045 375 0
-1045 376 0
-92 1042 1043 1044 1045 0
-1046 371 0
-1046 385 0
-1047 371 0
-1047 385 0
-1048 375 0
-1048 377 0
-1049 375 0
-1049 377 0
-93 1046 1047 1048 1049 0
-1050 373 0
-1050 390 0
-1051 373 0
-1051 390 0
-1052 375 0
-1052 381 0
-1053 375 0
-1053 381 0
-94 1050 1051 1052 1053 0
-1054 371 0
-1054 376 0
-1055 371 0
-1055 376 0
-1056 372 0
-1056 377 0
-1057 372 0
-1057 377 0
-1058 373 0
-1058 379 0
-1059 373 0
-1059 379 0
-1060 374 0
-1060 381 0
-1061 374 0
-1061 381 0
-95 1054 1055 1056 1057 1058 1059 1060 1061 0
-1062 371 0
-1062 375 0
-1063 371 0
-1063 375 0
-1064 377 0
-1064 385 0
-1065 377 0
-1065 385 0
-96 1062 1063 1064 1065 0
-1066 379 0
-1066 389 0
-1067 379 0
-1067 389 0
-1068 380 0
-1068 387 0
-1069 380 0
-1069 387 0
-1070 381 0
-1070 386 0
-1071 381 0
-1071 386 0
-97 1066 1067 1068 1069 1070 1071 0
-1072 378 0
-1072 387 0
-1073 378 0
-1073 387 0
-98 1072 1073 0
-1074 374 0
-1074 375 0
-1075 374 0
-1075 375 0
-1076 378 0
-1076 386 0
-1077 378 0
-1077 386 0
-1078 379 0
-1078 390 0
-1079 379 0
-1079 390 0
-99 1074 1075 1076 1077 1078 1079 0
-1080 384 0
-1080 388 0
-1081 384 0
-1081 388 0
-1082 385 0
-1082 387 0
-1083 385 0
-1083 387 0
-100 1080 1081 1082 1083 0
-1084 371 0
-1084 372 0
-1085 371 0
-1085 372 0
-1086 376 0
-1086 377 0
-1087 376 0
-1087 377 0
-1088 383 0
-1088 387 0
-1089 383 0
-1089 387 0
-1090 384 0
-1090 392 0
-1091 384 0
-1091 392 0
-101 1084 1085 1086 1087 1088 1089 1090 1091 0
-1092 378 0
-1092 381 0
-1093 378 0
-1093 381 0
-1094 388 0
-1094 391 0
-1095 388 0
-1095 391 0
-1096 389 0
-1096 390 0
-1097 389 0
-1097 390 0
-102 1092 1093 1094 1095 1096 1097 0
-1098 378 0
-1098 380 0
-1099 378 0
-1099 380 0
-1100 383 0
-1100 385 0
-1101 383 0
-1101 385 0
-1102 388 0
-1102 392 0
-1103 388 0
-1103 392 0
-103 1098 1099 1100 1101 1102 1103 0
-1104 378 0
-1104 379 0
-1105 378 0
-1105 379 0
-1106 386 0
-1106 390 0
-1107 386 0
-1107 390 0
-1108 388 0
-1108 393 0
-1109 388 0
-1109 393 0
-104 1104 1105 1106 1107 1108 1109 0
-1110 386 0
-1110 388 0
-1111 386 0
-1111 388 0
-1112 390 0
-1112 393 0
-1113 390 0
-1113 393 0
-105 1110 1111 1112 1113 0
-106 0
-1114 396 0
-1114 409 0
-1115 396 0
-1115 409 0
-1116 399 0
-1116 400 0
-1117 399 0
-1117 400 0
-107 1114 1115 1116 1117 0
-1118 395 0
-1118 409 0
-1119 395 0
-1119 409 0
-1120 399 0
-1120 401 0
-1121 399 0
-1121 401 0
-108 1118 1119 1120 1121 0
-1122 397 0
-1122 414 0
-1123 397 0
-1123 414 0
-1124 399 0
-1124 405 0
-1125 399 0
-1125 405 0
-109 1122 1123 1124 1125 0
-1126 395 0
-1126 400 0
-1127 395 0
-1127 400 0
-1128 396 0
-1128 401 0
-1129 396 0
-1129 401 0
-1130 397 0
-1130 403 0
-1131 397 0
-1131 403 0
-1132 398 0
-1132 405 0
-1133 398 0
-1133 405 0
-110 1126 1127 1128 1129 1130 1131 1132 1133 0
-1134 395 0
-1134 399 0
-1135 395 0
-1135 399 0
-1136 401 0
-1136 409 0
-1137 401 0
-1137 409 0
-111 1134 1135 1136 1137 0
-1138 403 0
-1138 413 0
-1139 403 0
-1139 413 0
-1140 404 0
-1140 411 0
-1141 404 0
-1141 411 0
-1142 405 0
-1142 410 0
-1143 405 0
-1143 410 0
-112 1138 1139 1140 1141 1142 1143 0
-1144 402 0
-1144 411 0
-1145 402 0
-1145 411 0
-113 1144 1145 0
-1146 398 0
-1146 399 0
-1147 398 0
-1147 399 0
-1148 402 0
-1148 410 0
-1149 402 0
-1149 410 0
-1150 403 0
-1150 414 0
-1151 403 0
-1151 414 0
-114 1146 1147 1148 1149 1150 1151 0
-1152 408 0
-1152 412 0
-1153 408 0
-1153 412 0
-1154 409 0
-1154 411 0
-1155 409 0
-1155 411 0
-115 1152 1153 1154 1155 0
-1156 395 0
-1156 396 0
-1157 395 0
-1157 396 0
-1158 400 0
-1158 401 0
-1159 400 0
-1159 401 0
-1160 407 0
-1160 411 0
-1161 407 0
-1161 411 0
-1162 408 0
-1162 416 0
-1163 408 0
-1163 416 0
-116 1156 1157 1158 1159 1160 1161 1162 1163 0
-1164 402 0
-1164 405 0
-1165 402 0
-1165 405 0
-1166 412 0
-1166 415 0
-1167 412 0
-1167 415 0
-1168 413 0
-1168 414 0
-1169 413 0
-1169 414 0
-117 1164 1165 1166 1167 1168 1169 0
-1170 402 0
-1170 404 0
-1171 402 0
-1171 404 0
-1172 407 0
-1172 409 0
-1173 407 0
-1173 409 0
-1174 412 0
-1174 416 0
-1175 412 0
-1175 416 0
-118 1170 1171 1172 1173 1174 1175 0
-1176 402 0
-1176 403 0
-1177 402 0
-1177 403 0
-1178 410 0
-1178 414 0
-1179 410 0
-1179 414 0
-1180 412 0
-1180 417 0
-1181 412 0
-1181 417 0
-119 1176 1177 1178 1179 1180 1181 0
-1182 410 0
-1182 412 0
-1183 410 0
-1183 412 0
-1184 414 0
-1184 417 0
-1185 414 0
-1185 417 0
-120 1182 1183 1184 1185 0
-121 0
-1186 420 0
-1186 433 0
-1187 420 0
-1187 433 0
-1188 423 0
-1188 424 0
-1189 423 0
-1189 424 0
-122 1186 1187 1188 1189 0
-1190 419 0
-1190 433 0
-1191 419 0
-1191 433 0
-1192 423 0
-1192 425 0
-1193 423 0
-1193 425 0
-123 1190 1191 1192 1193 0
-1194 421 0
-1194 438 0
-1195 421 0
-1195 438 0
-1196 423 0
-1196 429 0
-1197 423 0
-1197 429 0
-124 1194 1195 1196 1197 0
-1198 419 0
-1198 424 0
-1199 419 0
-1199 424 0
-1200 420 0
-1200 425 0
-1201 420 0
-1201 425 0
-1202 421 0
-1202 427 0
-1203 421 0
-1203 427 0
-1204 422 0
-1204 429 0
-1205 422 0
-1205 429 0
-125 1198 1199 1200 1201 1202 1203 1204 1205 0
-1206 419 0
-1206 423 0
-1207 419 0
-1207 423 0
-1208 425 0
-1208 433 0
-1209 425 0
-1209 433 0
-126 1206 1207 1208 1209 0
-1210 427 0
-1210 437 0
-1211 427 0
-1211 437 0
-1212 428 0
-1212 435 0
-1213 428 0
-1213 435 0
-1214 429 0
-1214 434 0
-1215 429 0
-1215 434 0
-127 1210 1211 1212 1213 1214 1215 0
-1216 426 0
-1216 435 0
-1217 426 0
-1217 435 0
-128 1216 1217 0
-1218 422 0
-1218 423 0
-1219 422 0
-1219 423 0
-1220 426 0
-1220 434 0
-1221 426 0
-1221 434 0
-1222 427 0
-1222 438 0
-1223 427 0
-1223 438 0
-129 1218 1219 1220 1221 1222 1223 0
-1224 432 0
-1224 436 0
-1225 432 0
-1225 436 0
-1226 433 0
-1226 435 0
-1227 433 0
-1227 435 0
-130 1224 1225 1226 1227 0
-1228 419 0
-1228 420 0
-1229 419 0
-1229 420 0
-1230 424 0
-1230 425 0
-1231 424 0
-1231 425 0
-1232 431 0
-1232 435 0
-1233 431 0
-1233 435 0
-1234 432 0
-1234 440 0
-1235 432 0
-1235 440 0
-131 1228 1229 1230 1231 1232 1233 1234 1235 0
-1236 426 0
-1236 429 0
-1237 426 0
-1237 429 0
-1238 436 0
-1238 439 0
-1239 436 0
-1239 439 0
-1240 437 0
-1240 438 0
-1241 437 0
-1241 438 0
-132 1236 1237 1238 1239 1240 1241 0
-1242 426 0
-1242 428 0
-1243 426 0
-1243 428 0
-1244 431 0
-1244 433 0
-1245 431 0
-1245 433 0
-1246 436 0
-1246 440 0
-1247 436 0
-1247 440 0
-133 1242 1243 1244 1245 1246 1247 0
-1248 426 0
-1248 427 0
-1249 426 0
-1249 427 0
-1250 434 0
-1250 438 0
-1251 434 0
-1251 438 0
-1252 436 0
-1252 441 0
-1253 436 0
-1253 441 0
-134 1248 1249 1250 1251 1252 1253 0
-1254 434 0
-1254 436 0
-1255 434 0
-1255 436 0
-1256 438 0
-1256 441 0
-1257 438 0
-1257 441 0
-135 1254 1255 1256 1257 0
-136 0
-1258 444 0
-1258 457 0
-1259 444 0
-1259 457 0
-1260 447 0
-1260 448 0
-1261 447 0
-1261 448 0
-137 1258 1259 1260 1261 0
-1262 443 0
-1262 457 0
-1263 443 0
-1263 457 0
-1264 447 0
-1264 449 0
-1265 447 0
-1265 449 0
-138 1262 1263 1264 1265 0
-1266 445 0
-1266 462 0
-1267 445 0
-1267 462 0
-1268 447 0
-1268 453 0
-1269 447 0
-1269 453 0
-139 1266 1267 1268 1269 0
-1270 443 0
-1270 448 0
-1271 443 0
-1271 448 0
-1272 444 0
-1272 449 0
-1273 444 0
-1273 449 0
-1274 445 0
-1274 451 0
-1275 445 0
-1275 451 0
-1276 446 0
-1276 453 0
-1277 446 0
-1277 453 0
-140 1270 1271 1272 1273 1274 1275 1276 1277 0
-1278 443 0
-1278 447 0
-1279 443 0
-1279 447 0
-1280 449 0
-1280 457 0
-1281 449 0
-1281 457 0
-141 1278 1279 1280 1281 0
-1282 451 0
-1282 461 0
-1283 451 0
-1283 461 0
-1284 452 0
-1284 459 0
-1285 452 0
-1285 459 0
-1286 453 0
-1286 458 0
-1287 453 0
-1287 458 0
-142 1282 1283 1284 1285 1286 1287 0
-1288 450 0
-1288 459 0
-1289 450 0
-1289 459 0
-143 1288 1289 0
-1290 446 0
-1290 447 0
-1291 446 0
-1291 447 0
-1292 450 0
-1292 458 0
-1293 450 0
-1293 458 0
-1294 451 0
-1294 462 0
-1295 451 0
-1295 462 0
-144 1290 1291 1292 1293 1294 1295 0
-1296 456 0
-1296 460 0
-1297 456 0
-1297 460 0
-1298 457 0
-1298 459 0
-1299 457 0
-1299 459 0
-145 1296 1297 1298 1299 0
-1300 443 0
-1300 444 0
-1301 443 0
-1301 444 0
-1302 448 0
-1302 449 0
-1303 448 0
-1303 449 0
-1304 455 0
-1304 459 0
-1305 455 0
-1305 459 0
-1306 456 0
-1306 464 0
-1307 456 0
-1307 464 0
-146 1300 1301 1302 1303 1304 1305 1306 1307 0
-1308 450 0
-1308 453 0
-1309 450 0
-1309 453 0
-1310 460 0
-1310 463 0
-1311 460 0
-1311 463 0
-1312 461 0
-1312 462 0
-1313 461 0
-1313 462 0
-147 1308 1309 1310 1311 1312 1313 0
-1314 450 0
-1314 452 0
-1315 450 0
-1315 452 0
-1316 455 0
-1316 457 0
-1317 455 0
-1317 457 0
-1318 460 0
-1318 464 0
-1319 460 0
-1319 464 0
-148 1314 1315 1316 1317 1318 1319 0
-1320 450 0
-1320 451 0
-1321 450 0
-1321 451 0
-1322 458 0
-1322 462 0
-1323 458 0
-1323 462 0
-1324 460 0
-1324 465 0
-1325 460 0
-1325 465 0
-149 1320 1321 1322 1323 1324 1325 0
-1326 458 0
-1326 460 0
-1327 458 0
-1327 460 0
-1328 462 0
-1328 465 0
-1329 462 0
-1329 465 0
-150 1326 1327 1328 1329 0
-151 0
-1330 468 0
-1330 481 0
-1331 468 0
-1331 481 0
-1332 471 0
-1332 472 0
-1333 471 0
-1333 472 0
-152 1330 1331 1332 1333 0
-1334 467 0
-1334 481 0
-1335 467 0
-1335 481 0
-1336 471 0
-1336 473 0
-1337 471 0
-1337 473 0
-153 1334 1335 1336 1337 0
-1338 469 0
-1338 486 0
-1339 469 0
-1339 486 0
-1340 471 0
-1340 477 0
-1341 471 0
-1341 477 0
-154 1338 1339 1340 1341 0
-1342 467 0
-1342 472 0
-1343 467 0
-1343 472 0
-1344 468 0
-1344 473 0
-1345 468 0
-1345 473 0
-1346 469 0
-1346 475 0
-1347 469 0
-1347 475 0
-1348 470 0
-1348 477 0
-1349 470 0
-1349 477 0
-155 1342 1343 1344 1345 1346 1347 1348 1349 0
-1350 467 0
-1350 471 0
-1351 467 0
-1351 471 0
-1352 473 0
-1352 481 0
-1353 473 0
-1353 481 0
-156 1350 1351 1352 1353 0
-1354 475 0
-1354 485 0
-1355 475 0
-1355 485 0
-1356 476 0
-1356 483 0
-1357 476 0
-1357 483 0
-1358 477 0
-1358 482 0
-1359 477 0
-1359 482 0
-157 1354 1355 1356 1357 1358 1359 0
-1360 474 0
-1360 483 0
-1361 474 0
-1361 483 0
-158 1360 1361 0
-1362 470 0
-1362 471 0
-1363 470 0
-1363 471 0
-1364 474 0
-1364 482 0
-1365 474 0
-1365 482 0
-1366 475 0
-1366 486 0
-1367 475 0
-1367 486 0
-159 1362 1363 1364 1365 1366 1367 0
-1368 480 0
-1368 484 0
-1369 480 0
-1369 484 0
-1370 481 0
-1370 483 0
-1371 481 0
-1371 483 0
-160 1368 1369 1370 1371 0
-1372 467 0
-1372 468 0
-1373 467 0
-1373 468 0
-1374 472 0
-1374 473 0
-1375 472 0
-1375 473 0
-1376 479 0
-1376 483 0
-1377 479 0
-1377 483 0
-1378 480 0
-1378 488 0
-1379 480 0
-1379 488 0
-161 1372 1373 1374 1375 1376 1377 1378 1379 0
-1380 474 0
-1380 477 0
-1381 474 0
-1381 477 0
-1382 484 0
-1382 487 0
-1383 484 0
-1383 487 0
-1384 485 0
-1384 486 0
-1385 485 0
-1385 486 0
-162 1380 1381 1382 1383 1384 1385 0
-1386 474 0
-1386 476 0
-1387 474 0
-1387 476 0
-1388 479 0
-1388 481 0
-1389 479 0
-1389 481 0
-1390 484 0
-1390 488 0
-1391 484 0
-1391 488 0
-163 1386 1387 1388 1389 1390 1391 0
-1392 474 0
-1392 475 0
-1393 474 0
-1393 475 0
-1394 482 0
-1394 486 0
-1395 482 0
-1395 486 0
-1396 484 0
-1396 489 0
-1397 484 0
-1397 489 0
-164 1392 1393 1394 1395 1396 1397 0
-1398 482 0
-1398 484 0
-1399 482 0
-1399 484 0
-1400 486 0
-1400 489 0
-1401 486 0
-1401 489 0
-165 1398 1399 1400 1401 0
-166 0
-1402 492 0
-1402 505 0
-1403 492 0
-1403 505 0
-1404 495 0
-1404 496 0
-1405 495 0
-1405 496 0
-167 1402 1403 1404 1405 0
-1406 491 0
-1406 505 0
-1407 491 0
-1407 505 0
-1408 495 0
-1408 497 0
-1409 495 0
-1409 497 0
-168 1406 1407 1408 1409 0
-1410 493 0
-1410 510 0
-1411 493 0
-1411 510 0
-1412 495 0
-1412 501 0
-1413 495 0
-1413 501 0
-169 1410 1411 1412 1413 0
-1414 491 0
-1414 496 0
-1415 491 0
-1415 496 0
-1416 492 0
-1416 497 0
-1417 492 0
-1417 497 0
-1418 493 0
-1418 499 0
-1419 493 0
-1419 499 0
-1420 494 0
-1420 501 0
-1421 494 0
-1421 501 0
-170 1414 1415 1416 1417 1418 1419 1420 1421 0
-1422 491 0
-1422 495 0
-1423 491 0
-1423 495 0
-1424 497 0
-1424 505 0
-1425 497 0
-1425 505 0
-171 1422 1423 1424 1425 0
-1426 499 0
-1426 509 0
-1427 499 0
-1427 509 0
-1428 500 0
-1428 507 0
-1429 500 0
-1429 507 0
-1430 501 0
-1430 506 0
-1431 501 0
-1431 506 0
-172 1426 1427 1428 1429 1430 1431 0
-1432 498 0
-1432 507 0
-1433 498 0
-1433 507 0
-173 1432 1433 0
-1434 494 0
-1434 495 0
-1435 494 0
-1435 495 0
-1436 498 0
-1436 506 0
-1437 498 0
-1437 506 0
-1438 499 0
-1438 510 0
-1439 499 0
-1439 510 0
-174 1434 1435 1436 1437 1438 1439 0
-1440 504 0
-1440 508 0
-1441 504 0
-1441 508 0
-1442 505 0
-1442 507 0
-1443 505 0
-1443 507 0
-175 1440 1441 1442 1443 0
-1444 491 0
-1444 492 0
-1445 491 0
-1445 492 0
-1446 496 0
-1446 497 0
-1447 496 0
-1447 497 0
-1448 503 0
-1448 507 0
-1449 503 0
-1449 507 0
-1450 504 0
-1450 512 0
-1451 504 0
-1451 512 0
-176 1444 1445 1446 1447 1448 1449 1450 1451 0
-1452 498 0
-1452 501 0
-1453 498 0
-1453 501 0
-1454 508 0
-1454 511 0
-1455 508 0
-1455 511 0
-1456 509 0
-1456 510 0
-1457 509 0
-1457 510 0
-177 1452 1453 1454 1455 1456 1457 0
-1458 498 0
-1458 500 0
-1459 498 0
-1459 500 0
-1460 503 0
-1460 505 0
-1461 503 0
-1461 505 0
-1462 508 0
-1462 512 0
-1463 508 0
-1463 512 0
-178 1458 1459 1460 1461 1462 1463 0
-1464 498 0
-1464 499 0
-1465 498 0
-1465 499 0
-1466 506 0
-1466 510 0
-1467 506 0
-1467 510 0
-1468 508 0
-1468 513 0
-1469 508 0
-1469 513 0
-179 1464 1465 1466 1467 1468 1469 0
-1470 506 0
-1470 508 0
-1471 506 0
-1471 508 0
-1472 510 0
-1472 513 0
-1473 510 0
-1473 513 0
-180 1470 1471 1472 1473 0
-181 0
-1474 516 0
-1474 529 0
-1475 516 0
-1475 529 0
-1476 519 0
-1476 520 0
-1477 519 0
-1477 520 0
-182 1474 1475 1476 1477 0
-1478 515 0
-1478 529 0
-1479 515 0
-1479 529 0
-1480 519 0
-1480 521 0
-1481 519 0
-1481 521 0
-183 1478 1479 1480 1481 0
-1482 517 0
-1482 534 0
-1483 517 0
-1483 534 0
-1484 519 0
-1484 525 0
-1485 519 0
-1485 525 0
-184 1482 1483 1484 1485 0
-1486 515 0
-1486 520 0
-1487 515 0
-1487 520 0
-1488 516 0
-1488 521 0
-1489 516 0
-1489 521 0
-1490 517 0
-1490 523 0
-1491 517 0
-1491 523 0
-1492 518 0
-1492 525 0
-1493 518 0
-1493 525 0
-185 1486 1487 1488 1489 1490 1491 1492 1493 0
-1494 515 0
-1494 519 0
-1495 515 0
-1495 519 0
-1496 521 0
-1496 529 0
-1497 521 0
-1497 529 0
-186 1494 1495 1496 1497 0
-1498 523 0
-1498 533 0
-1499 523 0
-1499 533 0
-1500 524 0
-1500 531 0
-1501 524 0
-1501 531 0
-1502 525 0
-1502 530 0
-1503 525 0
-1503 530 0
-187 1498 1499 1500 1501 1502 1503 0
-1504 522 0
-1504 531 0
-1505 522 0
-1505 531 0
-188 1504 1505 0
-1506 518 0
-1506 519 0
-1507 518 0
-1507 519 0
-1508 522 0
-1508 530 0
-1509 522 0
-1509 530 0
-1510 523 0
-1510 534 0
-1511 523 0
-1511 534 0
-189 1506 1507 1508 1509 1510 1511 0
-1512 528 0
-1512 532 0
-1513 528 0
-1513 532 0
-1514 529 0
-1514 531 0
-1515 529 0
-1515 531 0
-190 1512 1513 1514 1515 0
-1516 515 0
-1516 516 0
-1517 515 0
-1517 516 0
-1518 520 0
-1518 521 0
-1519 520 0
-1519 521 0
-1520 527 0
-1520 531 0
-1521 527 0
-1521 531 0
-1522 528 0
-1522 536 0
-1523 528 0
-1523 536 0
-191 1516 1517 1518 1519 1520 1521 1522 1523 0
-1524 522 0
-1524 525 0
-1525 522 0
-1525 525 0
-1526 532 0
-1526 535 0
-1527 532 0
-1527 535 0
-1528 533 0
-1528 534 0
-1529 533 0
-1529 534 0
-192 1524 1525 1526 1527 1528 1529 0
-1530 522 0
-1530 524 0
-1531 522 0
-1531 524 0
-1532 527 0
-1532 529 0
-1533 527 0
-1533 529 0
-1534 532 0
-1534 536 0
-1535 532 0
-1535 536 0
-193 1530 1531 1532 1533 1534 1535 0
-1536 522 0
-1536 523 0
-1537 522 0
-1537 523 0
-1538 530 0
-1538 534 0
-1539 530 0
-1539 534 0
-1540 532 0
-1540 537 0
-1541 532 0
-1541 537 0
-194 1536 1537 1538 1539 1540 1541 0
-1542 530 0
-1542 532 0
-1543 530 0
-1543 532 0
-1544 534 0
-1544 537 0
-1545 534 0
-1545 537 0
-195 1542 1543 1544 1545 0
-196 0
-1546 540 0
-1546 553 0
-1547 540 0
-1547 553 0
-1548 543 0
-1548 544 0
-1549 543 0
-1549 544 0
-197 1546 1547 1548 1549 0
-1550 539 0
-1550 553 0
-1551 539 0
-1551 553 0
-1552 543 0
-1552 545 0
-1553 543 0
-1553 545 0
-198 1550 1551 1552 1553 0
-1554 541 0
-1554 558 0
-1555 541 0
-1555 558 0
-1556 543 0
-1556 549 0
-1557 543 0
-1557 549 0
-199 1554 1555 1556 1557 0
-1558 539 0
-1558 544 0
-1559 539 0
-1559 544 0
-1560 540 0
-1560 545 0
-1561 540 0
-1561 545 0
-1562 541 0
-1562 547 0
-1563 541 0
-1563 547 0
-1564 542 0
-1564 549 0
-1565 542 0
-1565 549 0
-200 1558 1559 1560 1561 1562 1563 1564 1565 0
-1566 539 0
-1566 543 0
-1567 539 0
-1567 543 0
-1568 545 0
-1568 553 0
-1569 545 0
-1569 553 0
-201 1566 1567 1568 1569 0
-1570 547 0
-1570 557 0
-1571 547 0
-1571 557 0
-1572 548 0
-1572 555 0
-1573 548 0
-1573 555 0
-1574 549 0
-1574 554 0
-1575 549 0
-1575 554 0
-202 1570 1571 1572 1573 1574 1575 0
-1576 546 0
-1576 555 0
-1577 546 0
-1577 555 0
-203 1576 1577 0
-1578 542 0
-1578 543 0
-1579 542 0
-1579 543 0
-1580 546 0
-1580 554 0
-1581 546 0
-1581 554 0
-1582 547 0
-1582 558 0
-1583 547 0
-1583 558 0
-204 1578 1579 1580 1581 1582 1583 0
-1584 552 0
-1584 556 0
-1585 552 0
-1585 556 0
-1586 553 0
-1586 555 0
-1587 553 0
-1587 555 0
-205 1584 1585 1586 1587 0
-1588 539 0
-1588 540 0
-1589 539 0
-1589 540 0
-1590 544 0
-1590 545 0
-1591 544 0
-1591 545 0
-1592 551 0
-1592 555 0
-1593 551 0
-1593 555 0
-1594 552 0
-1594 560 0
-1595 552 0
-1595 560 0
-206 1588 1589 1590 1591 1592 1593 1594 1595 0
-1596 546 0
-1596 549 0
-1597 546 0
-1597 549 0
-1598 556 0
-1598 559 0
-1599 556 0
-1599 559 0
-1600 557 0
-1600 558 0
-1601 557 0
-1601 558 0
-207 1596 1597 1598 1599 1600 1601 0
-1602 546 0
-1602 548 0
-1603 546 0
-1603 548 0
-1604 551 0
-1604 553 0
-1605 551 0
-1605 553 0
-1606 556 0
-1606 560 0
-1607 556 0
-1607 560 0
-208 1602 1603 1604 1605 1606 1607 0
-1608 546 0
-1608 547 0
-1609 546 0
-1609 547 0
-1610 554 0
-1610 558 0
-1611 554 0
-1611 558 0
-1612 556 0
-1612 561 0
-1613 556 0
-1613 561 0
-209 1608 1609 1610 1611 1612 1613 0
-1614 554 0
-1614 556 0
-1615 554 0
-1615 556 0
-1616 558 0
-1616 561 0
-1617 558 0
-1617 561 0
-210 1614 1615 1616 1617 0
-211 0
-1618 564 0
-1618 577 0
-1619 564 0
-1619 577 0
-1620 567 0
-1620 568 0
-1621 567 0
-1621 568 0
-212 1618 1619 1620 1621 0
-1622 563 0
-1622 577 0
-1623 563 0
-1623 577 0
-1624 567 0
-1624 569 0
-1625 567 0
-1625 569 0
-213 1622 1623 1624 1625 0
-1626 565 0
-1626 582 0
-1627 565 0
-1627 582 0
-1628 567 0
-1628 573 0
-1629 567 0
-1629 573 0
-214 1626 1627 1628 1629 0
-1630 563 0
-1630 568 0
-1631 563 0
-1631 568 0
-1632 564 0
-1632 569 0
-1633 564 0
-1633 569 0
-1634 565 0
-1634 571 0
-1635 565 0
-1635 571 0
-1636 566 0
-1636 573 0
-1637 566 0
-1637 573 0
-215 1630 1631 1632 1633 1634 1635 1636 1637 0
-1638 563 0
-1638 567 0
-1639 563 0
-1639 567 0
-1640 569 0
-1640 577 0
-1641 569 0
-1641 577 0
-216 1638 1639 1640 1641 0
-1642 571 0
-1642 581 0
-1643 571 0
-1643 581 0
-1644 572 0
-1644 579 0
-1645 572 0
-1645 579 0
-1646 573 0
-1646 578 0
-1647 573 0
-1647 578 0
-217 1642 1643 1644 1645 1646 1647 0
-1648 570 0
-1648 579 0
-1649 570 0
-1649 579 0
-218 1648 1649 0
-1650 566 0
-1650 567 0
-1651 566 0
-1651 567 0
-1652 570 0
-1652 578 0
-1653 570 0
-1653 578 0
-1654 571 0
-1654 582 0
-1655 571 0
-1655 582 0
-219 1650 1651 1652 1653 1654 1655 0
-1656 576 0
-1656 580 0
-1657 576 0
-1657 580 0
-1658 577 0
-1658 579 0
-1659 577 0
-1659 579 0
-220 1656 1657 1658 1659 0
-1660 563 0
-1660 564 0
-1661 563 0
-1661 564 0
-1662 568 0
-1662 569 0
-1663 568 0
-1663 569 0
-1664 575 0
-1664 579 0
-1665 575 0
-1665 579 0
-1666 576 0
-1666 584 0
-1667 576 0
-1667 584 0
-221 1660 1661 1662 1663 1664 1665 1666 1667 0
-1668 570 0
-1668 573 0
-1669 570 0
-1669 573 0
-1670 580 0
-1670 583 0
-1671 580 0
-1671 583 0
-1672 581 0
-1672 582 0
-1673 581 0
-1673 582 0
-222 1668 1669 1670 1671 1672 1673 0
-1674 570 0
-1674 572 0
-1675 570 0
-1675 572 0
-1676 575 0
-1676 577 0
-1677 575 0
-1677 577 0
-1678 580 0
-1678 584 0
-1679 580 0
-1679 584 0
-223 1674 1675 1676 1677 1678 1679 0
-1680 570 0
-1680 571 0
-1681 570 0
-1681 571 0
-1682 578 0
-1682 582 0
-1683 578 0
-1683 582 0
-1684 580 0
-1684 585 0
-1685 580 0
-1685 585 0
-224 1680 1681 1682 1683 1684 1685 0
-1686 578 0
-1686 580 0
-1687 578 0
-1687 580 0
-1688 582 0
-1688 585 0
-1689 582 0
-1689 585 0
-225 1686 1687 1688 1689 0
