p cnf 1241 3229
-1 -2 0
-1 -3 0
-1 -4 0
-1 -5 0
-1 -6 0
-1 -7 0
-1 -8 0
-1 -9 0
-1 -10 0
-1 -11 0
-1 -12 0
-1 -13 0
-1 -14 0
-2 -3 0
-2 -4 0
-2 -5 0
-2 -6 0
-2 -7 0
-2 -8 0
-2 -9 0
-2 -10 0
-2 -11 0
-2 -12 0
-2 -13 0
-2 -14 0
-3 -4 0
-3 -5 0
-3 -6 0
-3 -7 0
-3 -8 0
-3 -9 0
-3 -10 0
-3 -11 0
-3 -12 0
-3 -13 0
-3 -14 0
-4 -5 0
-4 -6 0
-4 -7 0
-4 -8 0
-4 -9 0
-4 -10 0
-4 -11 0
-4 -12 0
-4 -13 0
-4 -14 0
-5 -6 0
-5 -7 0
-5 -8 0
-5 -9 0
-5 -10 0
-5 -11 0
-5 -12 0
-5 -13 0
-5 -14 0
-6 -7 0
-6 -8 0
-6 -9 0
-6 -10 0
-6 -11 0
-6 -12 0
-6 -13 0
-6 -14 0
-7 -8 0
-7 -9 0
-7 -10 0
-7 -11 0
-7 -12 0
-7 -13 0
-7 -14 0
-8 -9 0
-8 -10 0
-8 -11 0
-8 -12 0
-8 -13 0
-8 -14 0
-9 -10 0
-9 -11 0
-9 -12 0
-9 -13 0
-9 -14 0
-10 -11 0
-10 -12 0
-10 -13 0
-10 -14 0
-11 -12 0
-11 -13 0
-11 -14 0
-12 -13 0
-12 -14 0
-13 -14 0
-220 197 1 0
-221 198 2 0
-222 199 3 0
-223 200 4 0
-224 201 5 0
-225 202 6 0
-226 203 0
-227 204 7 0
-228 205 8 0
-229 206 9 0
-230 207 0
-231 208 0
-232 209 0
-233 210 10 0
-234 211 11 0
-235 212 0
-236 213 12 0
-237 214 13 0
-238 215 0
-239 216 0
-240 217 0
-241 218 14 0
-242 219 0
-15 -16 0
-15 -17 0
-15 -18 0
-15 -19 0
-15 -20 0
-15 -21 0
-15 -22 0
-15 -23 0
-15 -24 0
-15 -25 0
-15 -26 0
-15 -27 0
-15 -28 0
-16 -17 0
-16 -18 0
-16 -19 0
-16 -20 0
-16 -21 0
-16 -22 0
-16 -23 0
-16 -24 0
-16 -25 0
-16 -26 0
-16 -27 0
-16 -28 0
-17 -18 0
-17 -19 0
-17 -20 0
-17 -21 0
-17 -22 0
-17 -23 0
-17 -24 0
-17 -25 0
-17 -26 0
-17 -27 0
-17 -28 0
-18 -19 0
-18 -20 0
-18 -21 0
-18 -22 0
-18 -23 0
-18 -24 0
-18 -25 0
-18 -26 0
-18 -27 0
-18 -28 0
-19 -20 0
-19 -21 0
-19 -22 0
-19 -23 0
-19 -24 0
-19 -25 0
-19 -26 0
-19 -27 0
-19 -28 0
-20 -21 0
-20 -22 0
-20 -23 0
-20 -24 0
-20 -25 0
-20 -26 0
-20 -27 0
-20 -28 0
-21 -22 0
-21 -23 0
-21 -24 0
-21 -25 0
-21 -26 0
-21 -27 0
-21 -28 0
-22 -23 0
-22 -24 0
-22 -25 0
-22 -26 0
-22 -27 0
-22 -28 0
-23 -24 0
-23 -25 0
-23 -26 0
-23 -27 0
-23 -28 0
-24 -25 0
-24 -26 0
-24 -27 0
-24 -28 0
-25 -26 0
-25 -27 0
-25 -28 0
-26 -27 0
-26 -28 0
-27 -28 0
-243 220 15 0
-244 221 16 0
-245 222 17 0
-246 223 18 0
-247 224 19 0
-248 225 20 0
-249 226 0
-250 227 21 0
-251 228 22 0
-252 229 23 0
-253 230 0
-254 231 0
-255 232 0
-256 233 24 0
-257 234 25 0
-258 235 0
-259 236 26 0
-260 237 27 0
-261 238 0
-262 239 0
-263 240 0
-264 241 28 0
-265 242 0
-29 -30 0
-29 -31 0
-29 -32 0
-29 -33 0
-29 -34 0
-29 -35 0
-29 -36 0
-29 -37 0
-29 -38 0
-29 -39 0
-29 -40 0
-29 -41 0
-29 -42 0
-30 -31 0
-30 -32 0
-30 -33 0
-30 -34 0
-30 -35 0
-30 -36 0
-30 -37 0
-30 -38 0
-30 -39 0
-30 -40 0
-30 -41 0
-30 -42 0
-31 -32 0
-31 -33 0
-31 -34 0
-31 -35 0
-31 -36 0
-31 -37 0
-31 -38 0
-31 -39 0
-31 -40 0
-31 -41 0
-31 -42 0
-32 -33 0
-32 -34 0
-32 -35 0
-32 -36 0
-32 -37 0
-32 -38 0
-32 -39 0
-32 -40 0
-32 -41 0
-32 -42 0
-33 -34 0
-33 -35 0
-33 -36 0
-33 -37 0
-33 -38 0
-33 -39 0
-33 -40 0
-33 -41 0
-33 -42 0
-34 -35 0
-34 -36 0
-34 -37 0
-34 -38 0
-34 -39 0
-34 -40 0
-34 -41 0
-34 -42 0
-35 -36 0
-35 -37 0
-35 -38 0
-35 -39 0
-35 -40 0
-35 -41 0
-35 -42 0
-36 -37 0
-36 -38 0
-36 -39 0
-36 -40 0
-36 -41 0
-36 -42 0
-37 -38 0
-37 -39 0
-37 -40 0
-37 -41 0
-37 -42 0
-38 -39 0
-38 -40 0
-38 -41 0
-38 -42 0
-39 -40 0
-39 -41 0
-39 -42 0
-40 -41 0
-40 -42 0
-41 -42 0
-266 243 29 0
-267 244 30 0
-268 245 31 0
-269 246 32 0
-270 247 33 0
-271 248 34 0
-272 249 0
-273 250 35 0
-274 251 36 0
-275 252 37 0
-276 253 0
-277 254 0
-278 255 0
-279 256 38 0
-280 257 39 0
-281 258 0
-282 259 40 0
-283 260 41 0
-284 261 0
-285 262 0
-286 263 0
-287 264 42 0
-288 265 0
-43 -44 0
-43 -45 0
-43 -46 0
-43 -47 0
-43 -48 0
-43 -49 0
-43 -50 0
-43 -51 0
-43 -52 0
-43 -53 0
-43 -54 0
-43 -55 0
-43 -56 0
-44 -45 0
-44 -46 0
-44 -47 0
-44 -48 0
-44 -49 0
-44 -50 0
-44 -51 0
-44 -52 0
-44 -53 0
-44 -54 0
-44 -55 0
-44 -56 0
-45 -46 0
-45 -47 0
-45 -48 0
-45 -49 0
-45 -50 0
-45 -51 0
-45 -52 0
-45 -53 0
-45 -54 0
-45 -55 0
-45 -56 0
-46 -47 0
-46 -48 0
-46 -49 0
-46 -50 0
-46 -51 0
-46 -52 0
-46 -53 0
-46 -54 0
-46 -55 0
-46 -56 0
-47 -48 0
-47 -49 0
-47 -50 0
-47 -51 0
-47 -52 0
-47 -53 0
-47 -54 0
-47 -55 0
-47 -56 0
-48 -49 0
-48 -50 0
-48 -51 0
-48 -52 0
-48 -53 0
-48 -54 0
-48 -55 0
-48 -56 0
-49 -50 0
-49 -51 0
-49 -52 0
-49 -53 0
-49 -54 0
-49 -55 0
-49 -56 0
-50 -51 0
-50 -52 0
-50 -53 0
-50 -54 0
-50 -55 0
-50 -56 0
-51 -52 0
-51 -53 0
-51 -54 0
-51 -55 0
-51 -56 0
-52 -53 0
-52 -54 0
-52 -55 0
-52 -56 0
-53 -54 0
-53 -55 0
-53 -56 0
-54 -55 0
-54 -56 0
-55 -56 0
-289 266 43 0
-290 267 44 0
-291 268 45 0
-292 269 46 0
-293 270 47 0
-294 271 48 0
-295 272 0
-296 273 49 0
-297 274 50 0
-298 275 51 0
-299 276 0
-300 277 0
-301 278 0
-302 279 52 0
-303 280 53 0
-304 281 0
-305 282 54 0
-306 283 55 0
-307 284 0
-308 285 0
-309 286 0
-310 287 56 0
-311 288 0
-57 -58 0
-57 -59 0
-57 -60 0
-57 -61 0
-57 -62 0
-57 -63 0
-57 -64 0
-57 -65 0
-57 -66 0
-57 -67 0
-57 -68 0
-57 -69 0
-57 -70 0
-58 -59 0
-58 -60 0
-58 -61 0
-58 -62 0
-58 -63 0
-58 -64 0
-58 -65 0
-58 -66 0
-58 -67 0
-58 -68 0
-58 -69 0
-58 -70 0
-59 -60 0
-59 -61 0
-59 -62 0
-59 -63 0
-59 -64 0
-59 -65 0
-59 -66 0
-59 -67 0
-59 -68 0
-59 -69 0
-59 -70 0
-60 -61 0
-60 -62 0
-60 -63 0
-60 -64 0
-60 -65 0
-60 -66 0
-60 -67 0
-60 -68 0
-60 -69 0
-60 -70 0
-61 -62 0
-61 -63 0
-61 -64 0
-61 -65 0
-61 -66 0
-61 -67 0
-61 -68 0
-61 -69 0
-61 -70 0
-62 -63 0
-62 -64 0
-62 -65 0
-62 -66 0
-62 -67 0
-62 -68 0
-62 -69 0
-62 -70 0
-63 -64 0
-63 -65 0
-63 -66 0
-63 -67 0
-63 -68 0
-63 -69 0
-63 -70 0
-64 -65 0
-64 -66 0
-64 -67 0
-64 -68 0
-64 -69 0
-64 -70 0
-65 -66 0
-65 -67 0
-65 -68 0
-65 -69 0
-65 -70 0
-66 -67 0
-66 -68 0
-66 -69 0
-66 -70 0
-67 -68 0
-67 -69 0
-67 -70 0
-68 -69 0
-68 -70 0
-69 -70 0
-312 289 57 0
-313 290 58 0
-314 291 59 0
-315 292 60 0
-316 293 61 0
-317 294 62 0
-318 295 0
-319 296 63 0
-320 297 64 0
-321 298 65 0
-322 299 0
-323 300 0
-324 301 0
-325 302 66 0
-326 303 67 0
-327 304 0
-328 305 68 0
-329 306 69 0
-330 307 0
-331 308 0
-332 309 0
-333 310 70 0
-334 311 0
-71 -72 0
-71 -73 0
-71 -74 0
-71 -75 0
-71 -76 0
-71 -77 0
-71 -78 0
-71 -79 0
-71 -80 0
-71 -81 0
-71 -82 0
-71 -83 0
-71 -84 0
-72 -73 0
-72 -74 0
-72 -75 0
-72 -76 0
-72 -77 0
-72 -78 0
-72 -79 0
-72 -80 0
-72 -81 0
-72 -82 0
-72 -83 0
-72 -84 0
-73 -74 0
-73 -75 0
-73 -76 0
-73 -77 0
-73 -78 0
-73 -79 0
-73 -80 0
-73 -81 0
-73 -82 0
-73 -83 0
-73 -84 0
-74 -75 0
-74 -76 0
-74 -77 0
-74 -78 0
-74 -79 0
-74 -80 0
-74 -81 0
-74 -82 0
-74 -83 0
-74 -84 0
-75 -76 0
-75 -77 0
-75 -78 0
-75 -79 0
-75 -80 0
-75 -81 0
-75 -82 0
-75 -83 0
-75 -84 0
-76 -77 0
-76 -78 0
-76 -79 0
-76 -80 0
-76 -81 0
-76 -82 0
-76 -83 0
-76 -84 0
-77 -78 0
-77 -79 0
-77 -80 0
-77 -81 0
-77 -82 0
-77 -83 0
-77 -84 0
-78 -79 0
-78 -80 0
-78 -81 0
-78 -82 0
-78 -83 0
-78 -84 0
-79 -80 0
-79 -81 0
-79 -82 0
-79 -83 0
-79 -84 0
-80 -81 0
-80 -82 0
-80 -83 0
-80 -84 0
-81 -82 0
-81 -83 0
-81 -84 0
-82 -83 0
-82 -84 0
-83 -84 0
-335 312 71 0
-336 313 72 0
-337 314 73 0
-338 315 74 0
-339 316 75 0
-340 317 76 0
-341 318 0
-342 319 77 0
-343 320 78 0
-344 321 79 0
-345 322 0
-346 323 0
-347 324 0
-348 325 80 0
-349 326 81 0
-350 327 0
-351 328 82 0
-352 329 83 0
-353 330 0
-354 331 0
-355 332 0
-356 333 84 0
-357 334 0
-85 -86 0
-85 -87 0
-85 -88 0
-85 -89 0
-85 -90 0
-85 -91 0
-85 -92 0
-85 -93 0
-85 -94 0
-85 -95 0
-85 -96 0
-85 -97 0
-85 -98 0
-86 -87 0
-86 -88 0
-86 -89 0
-86 -90 0
-86 -91 0
-86 -92 0
-86 -93 0
-86 -94 0
-86 -95 0
-86 -96 0
-86 -97 0
-86 -98 0
-87 -88 0
-87 -89 0
-87 -90 0
-87 -91 0
-87 -92 0
-87 -93 0
-87 -94 0
-87 -95 0
-87 -96 0
-87 -97 0
-87 -98 0
-88 -89 0
-88 -90 0
-88 -91 0
-88 -92 0
-88 -93 0
-88 -94 0
-88 -95 0
-88 -96 0
-88 -97 0
-88 -98 0
-89 -90 0
-89 -91 0
-89 -92 0
-89 -93 0
-89 -94 0
-89 -95 0
-89 -96 0
-89 -97 0
-89 -98 0
-90 -91 0
-90 -92 0
-90 -93 0
-90 -94 0
-90 -95 0
-90 -96 0
-90 -97 0
-90 -98 0
-91 -92 0
-91 -93 0
-91 -94 0
-91 -95 0
-91 -96 0
-91 -97 0
-91 -98 0
-92 -93 0
-92 -94 0
-92 -95 0
-92 -96 0
-92 -97 0
-92 -98 0
-93 -94 0
-93 -95 0
-93 -96 0
-93 -97 0
-93 -98 0
-94 -95 0
-94 -96 0
-94 -97 0
-94 -98 0
-95 -96 0
-95 -97 0
-95 -98 0
-96 -97 0
-96 -98 0
-97 -98 0
-358 335 85 0
-359 336 86 0
-360 337 87 0
-361 338 88 0
-362 339 89 0
-363 340 90 0
-364 341 0
-365 342 91 0
-366 343 92 0
-367 344 93 0
-368 345 0
-369 346 0
-370 347 0
-371 348 94 0
-372 349 95 0
-373 350 0
-374 351 96 0
-375 352 97 0
-376 353 0
-377 354 0
-378 355 0
-379 356 98 0
-380 357 0
-99 -100 0
-99 -101 0
-99 -102 0
-99 -103 0
-99 -104 0
-99 -105 0
-99 -106 0
-99 -107 0
-99 -108 0
-99 -109 0
-99 -110 0
-99 -111 0
-99 -112 0
-100 -101 0
-100 -102 0
-100 -103 0
-100 -104 0
-100 -105 0
-100 -106 0
-100 -107 0
-100 -108 0
-100 -109 0
-100 -110 0
-100 -111 0
-100 -112 0
-101 -102 0
-101 -103 0
-101 -104 0
-101 -105 0
-101 -106 0
-101 -107 0
-101 -108 0
-101 -109 0
-101 -110 0
-101 -111 0
-101 -112 0
-102 -103 0
-102 -104 0
-102 -105 0
-102 -106 0
-102 -107 0
-102 -108 0
-102 -109 0
-102 -110 0
-102 -111 0
-102 -112 0
-103 -104 0
-103 -105 0
-103 -106 0
-103 -107 0
-103 -108 0
-103 -109 0
-103 -110 0
-103 -111 0
-103 -112 0
-104 -105 0
-104 -106 0
-104 -107 0
-104 -108 0
-104 -109 0
-104 -110 0
-104 -111 0
-104 -112 0
-105 -106 0
-105 -107 0
-105 -108 0
-105 -109 0
-105 -110 0
-105 -111 0
-105 -112 0
-106 -107 0
-106 -108 0
-106 -109 0
-106 -110 0
-106 -111 0
-106 -112 0
-107 -108 0
-107 -109 0
-107 -110 0
-107 -111 0
-107 -112 0
-108 -109 0
-108 -110 0
-108 -111 0
-108 -112 0
-109 -110 0
-109 -111 0
-109 -112 0
-110 -111 0
-110 -112 0
-111 -112 0
-381 358 99 0
-382 359 100 0
-383 360 101 0
-384 361 102 0
-385 362 103 0
-386 363 104 0
-387 364 0
-388 365 105 0
-389 366 106 0
-390 367 107 0
-391 368 0
-392 369 0
-393 370 0
-394 371 108 0
-395 372 109 0
-396 373 0
-397 374 110 0
-398 375 111 0
-399 376 0
-400 377 0
-401 378 0
-402 379 112 0
-403 380 0
-113 -114 0
-113 -115 0
-113 -116 0
-113 -117 0
-113 -118 0
-113 -119 0
-113 -120 0
-113 -121 0
-113 -122 0
-113 -123 0
-113 -124 0
-113 -125 0
-113 -126 0
-114 -115 0
-114 -116 0
-114 -117 0
-114 -118 0
-114 -119 0
-114 -120 0
-114 -121 0
-114 -122 0
-114 -123 0
-114 -124 0
-114 -125 0
-114 -126 0
-115 -116 0
-115 -117 0
-115 -118 0
-115 -119 0
-115 -120 0
-115 -121 0
-115 -122 0
-115 -123 0
-115 -124 0
-115 -125 0
-115 -126 0
-116 -117 0
-116 -118 0
-116 -119 0
-116 -120 0
-116 -121 0
-116 -122 0
-116 -123 0
-116 -124 0
-116 -125 0
-116 -126 0
-117 -118 0
-117 -119 0
-117 -120 0
-117 -121 0
-117 -122 0
-117 -123 0
-117 -124 0
-117 -125 0
-117 -126 0
-118 -119 0
-118 -120 0
-118 -121 0
-118 -122 0
-118 -123 0
-118 -124 0
-118 -125 0
-118 -126 0
-119 -120 0
-119 -121 0
-119 -122 0
-119 -123 0
-119 -124 0
-119 -125 0
-119 -126 0
-120 -121 0
-120 -122 0
-120 -123 0
-120 -124 0
-120 -125 0
-120 -126 0
-121 -122 0
-121 -123 0
-121 -124 0
-121 -125 0
-121 -126 0
-122 -123 0
-122 -124 0
-122 -125 0
-122 -126 0
-123 -124 0
-123 -125 0
-123 -126 0
-124 -125 0
-124 -126 0
-125 -126 0
-404 381 113 0
-405 382 114 0
-406 383 115 0
-407 384 116 0
-408 385 117 0
-409 386 118 0
-410 387 0
-411 388 119 0
-412 389 120 0
-413 390 121 0
-414 391 0
-415 392 0
-416 393 0
-417 394 122 0
-418 395 123 0
-419 396 0
-420 397 124 0
-421 398 125 0
-422 399 0
-423 400 0
-424 401 0
-425 402 126 0
-426 403 0
-127 -128 0
-127 -129 0
-127 -130 0
-127 -131 0
-127 -132 0
-127 -133 0
-127 -134 0
-127 -135 0
-127 -136 0
-127 -137 0
-127 -138 0
-127 -139 0
-127 -140 0
-128 -129 0
-128 -130 0
-128 -131 0
-128 -132 0
-128 -133 0
-128 -134 0
-128 -135 0
-128 -136 0
-128 -137 0
-128 -138 0
-128 -139 0
-128 -140 0
-129 -130 0
-129 -131 0
-129 -132 0
-129 -133 0
-129 -134 0
-129 -135 0
-129 -136 0
-129 -137 0
-129 -138 0
-129 -139 0
-129 -140 0
-130 -131 0
-130 -132 0
-130 -133 0
-130 -134 0
-130 -135 0
-130 -136 0
-130 -137 0
-130 -138 0
-130 -139 0
-130 -140 0
-131 -132 0
-131 -133 0
-131 -134 0
-131 -135 0
-131 -136 0
-131 -137 0
-131 -138 0
-131 -139 0
-131 -140 0
-132 -133 0
-132 -134 0
-132 -135 0
-132 -136 0
-132 -137 0
-132 -138 0
-132 -139 0
-132 -140 0
-133 -134 0
-133 -135 0
-133 -136 0
-133 -137 0
-133 -138 0
-133 -139 0
-133 -140 0
-134 -135 0
-134 -136 0
-134 -137 0
-134 -138 0
-134 -139 0
-134 -140 0
-135 -136 0
-135 -137 0
-135 -138 0
-135 -139 0
-135 -140 0
-136 -137 0
-136 -138 0
-136 -139 0
-136 -140 0
-137 -138 0
-137 -139 0
-137 -140 0
-138 -139 0
-138 -140 0
-139 -140 0
-427 404 127 0
-428 405 128 0
-429 406 129 0
-430 407 130 0
-431 408 131 0
-432 409 132 0
-433 410 0
-434 411 133 0
-435 412 134 0
-436 413 135 0
-437 414 0
-438 415 0
-439 416 0
-440 417 136 0
-441 418 137 0
-442 419 0
-443 420 138 0
-444 421 139 0
-445 422 0
-446 423 0
-447 424 0
-448 425 140 0
-449 426 0
-141 -142 0
-141 -143 0
-141 -144 0
-141 -145 0
-141 -146 0
-141 -147 0
-141 -148 0
-141 -149 0
-141 -150 0
-141 -151 0
-141 -152 0
-141 -153 0
-141 -154 0
-142 -143 0
-142 -144 0
-142 -145 0
-142 -146 0
-142 -147 0
-142 -148 0
-142 -149 0
-142 -150 0
-142 -151 0
-142 -152 0
-142 -153 0
-142 -154 0
-143 -144 0
-143 -145 0
-143 -146 0
-143 -147 0
-143 -148 0
-143 -149 0
-143 -150 0
-143 -151 0
-143 -152 0
-143 -153 0
-143 -154 0
-144 -145 0
-144 -146 0
-144 -147 0
-144 -148 0
-144 -149 0
-144 -150 0
-144 -151 0
-144 -152 0
-144 -153 0
-144 -154 0
-145 -146 0
-145 -147 0
-145 -148 0
-145 -149 0
-145 -150 0
-145 -151 0
-145 -152 0
-145 -153 0
-145 -154 0
-146 -147 0
-146 -148 0
-146 -149 0
-146 -150 0
-146 -151 0
-146 -152 0
-146 -153 0
-146 -154 0
-147 -148 0
-147 -149 0
-147 -150 0
-147 -151 0
-147 -152 0
-147 -153 0
-147 -154 0
-148 -149 0
-148 -150 0
-148 -151 0
-148 -152 0
-148 -153 0
-148 -154 0
-149 -150 0
-149 -151 0
-149 -152 0
-149 -153 0
-149 -154 0
-150 -151 0
-150 -152 0
-150 -153 0
-150 -154 0
-151 -152 0
-151 -153 0
-151 -154 0
-152 -153 0
-152 -154 0
-153 -154 0
-450 427 141 0
-451 428 142 0
-452 429 143 0
-453 430 144 0
-454 431 145 0
-455 432 146 0
-456 433 0
-457 434 147 0
-458 435 148 0
-459 436 149 0
-460 437 0
-461 438 0
-462 439 0
-463 440 150 0
-464 441 151 0
-465 442 0
-466 443 152 0
-467 444 153 0
-468 445 0
-469 446 0
-470 447 0
-471 448 154 0
-472 449 0
-155 -156 0
-155 -157 0
-155 -158 0
-155 -159 0
-155 -160 0
-155 -161 0
-155 -162 0
-155 -163 0
-155 -164 0
-155 -165 0
-155 -166 0
-155 -167 0
-155 -168 0
-156 -157 0
-156 -158 0
-156 -159 0
-156 -160 0
-156 -161 0
-156 -162 0
-156 -163 0
-156 -164 0
-156 -165 0
-156 -166 0
-156 -167 0
-156 -168 0
-157 -158 0
-157 -159 0
-157 -160 0
-157 -161 0
-157 -162 0
-157 -163 0
-157 -164 0
-157 -165 0
-157 -166 0
-157 -167 0
-157 -168 0
-158 -159 0
-158 -160 0
-158 -161 0
-158 -162 0
-158 -163 0
-158 -164 0
-158 -165 0
-158 -166 0
-158 -167 0
-158 -168 0
-159 -160 0
-159 -161 0
-159 -162 0
-159 -163 0
-159 -164 0
-159 -165 0
-159 -166 0
-159 -167 0
-159 -168 0
-160 -161 0
-160 -162 0
-160 -163 0
-160 -164 0
-160 -165 0
-160 -166 0
-160 -167 0
-160 -168 0
-161 -162 0
-161 -163 0
-161 -164 0
-161 -165 0
-161 -166 0
-161 -167 0
-161 -168 0
-162 -163 0
-162 -164 0
-162 -165 0
-162 -166 0
-162 -167 0
-162 -168 0
-163 -164 0
-163 -165 0
-163 -166 0
-163 -167 0
-163 -168 0
-164 -165 0
-164 -166 0
-164 -167 0
-164 -168 0
-165 -166 0
-165 -167 0
-165 -168 0
-166 -167 0
-166 -168 0
-167 -168 0
-473 450 155 0
-474 451 156 0
-475 452 157 0
-476 453 158 0
-477 454 159 0
-478 455 160 0
-479 456 0
-480 457 161 0
-481 458 162 0
-482 459 163 0
-483 460 0
-484 461 0
-485 462 0
-486 463 164 0
-487 464 165 0
-488 465 0
-489 466 166 0
-490 467 167 0
-491 468 0
-492 469 0
-493 470 0
-494 471 168 0
-495 472 0
-169 -170 0
-169 -171 0
-169 -172 0
-169 -173 0
-169 -174 0
-169 -175 0
-169 -176 0
-169 -177 0
-169 -178 0
-169 -179 0
-169 -180 0
-169 -181 0
-169 -182 0
-170 -171 0
-170 -172 0
-170 -173 0
-170 -174 0
-170 -175 0
-170 -176 0
-170 -177 0
-170 -178 0
-170 -179 0
-170 -180 0
-170 -181 0
-170 -182 0
-171 -172 0
-171 -173 0
-171 -174 0
-171 -175 0
-171 -176 0
-171 -177 0
-171 -178 0
-171 -179 0
-171 -180 0
-171 -181 0
-171 -182 0
-172 -173 0
-172 -174 0
-172 -175 0
-172 -176 0
-172 -177 0
-172 -178 0
-172 -179 0
-172 -180 0
-172 -181 0
-172 -182 0
-173 -174 0
-173 -175 0
-173 -176 0
-173 -177 0
-173 -178 0
-173 -179 0
-173 -180 0
-173 -181 0
-173 -182 0
-174 -175 0
-174 -176 0
-174 -177 0
-174 -178 0
-174 -179 0
-174 -180 0
-174 -181 0
-174 -182 0
-175 -176 0
-175 -177 0
-175 -178 0
-175 -179 0
-175 -180 0
-175 -181 0
-175 -182 0
-176 -177 0
-176 -178 0
-176 -179 0
-176 -180 0
-176 -181 0
-176 -182 0
-177 -178 0
-177 -179 0
-177 -180 0
-177 -181 0
-177 -182 0
-178 -179 0
-178 -180 0
-178 -181 0
-178 -182 0
-179 -180 0
-179 -181 0
-179 -182 0
-180 -181 0
-180 -182 0
-181 -182 0
-496 473 169 0
-497 474 170 0
-498 475 171 0
-499 476 172 0
-500 477 173 0
-501 478 174 0
-502 479 0
-503 480 175 0
-504 481 176 0
-505 482 177 0
-506 483 0
-507 484 0
-508 485 0
-509 486 178 0
-510 487 179 0
-511 488 0
-512 489 180 0
-513 490 181 0
-514 491 0
-515 492 0
-516 493 0
-517 494 182 0
-518 495 0
-183 -184 0
-183 -185 0
-183 -186 0
-183 -187 0
-183 -188 0
-183 -189 0
-183 -190 0
-183 -191 0
-183 -192 0
-183 -193 0
-183 -194 0
-183 -195 0
-183 -196 0
-184 -185 0
-184 -186 0
-184 -187 0
-184 -188 0
-184 -189 0
-184 -190 0
-184 -191 0
-184 -192 0
-184 -193 0
-184 -194 0
-184 -195 0
-184 -196 0
-185 -186 0
-185 -187 0
-185 -188 0
-185 -189 0
-185 -190 0
-185 -191 0
-185 -192 0
-185 -193 0
-185 -194 0
-185 -195 0
-185 -196 0
-186 -187 0
-186 -188 0
-186 -189 0
-186 -190 0
-186 -191 0
-186 -192 0
-186 -193 0
-186 -194 0
-186 -195 0
-186 -196 0
-187 -188 0
-187 -189 0
-187 -190 0
-187 -191 0
-187 -192 0
-187 -193 0
-187 -194 0
-187 -195 0
-187 -196 0
-188 -189 0
-188 -190 0
-188 -191 0
-188 -192 0
-188 -193 0
-188 -194 0
-188 -195 0
-188 -196 0
-189 -190 0
-189 -191 0
-189 -192 0
-189 -193 0
-189 -194 0
-189 -195 0
-189 -196 0
-190 -191 0
-190 -192 0
-190 -193 0
-190 -194 0
-190 -195 0
-190 -196 0
-191 -192 0
-191 -193 0
-191 -194 0
-191 -195 0
-191 -196 0
-192 -193 0
-192 -194 0
-192 -195 0
-192 -196 0
-193 -194 0
-193 -195 0
-193 -196 0
-194 -195 0
-194 -196 0
-195 -196 0
-519 496 183 0
-520 497 184 0
-521 498 185 0
-522 499 186 0
-523 500 187 0
-524 501 188 0
-525 502 0
-526 503 189 0
-527 504 190 0
-528 505 191 0
-529 506 0
-530 507 0
-531 508 0
-532 509 192 0
-533 510 193 0
-534 511 0
-535 512 194 0
-536 513 195 0
-537 514 0
-538 515 0
-539 516 0
-540 517 196 0
-541 518 0
-197 0
-198 0
-199 0
-200 0
-201 0
-202 0
203 0
-204 0
-205 0
-206 0
207 0
208 0
209 0
-210 0
-211 0
212 0
-213 0
-214 0
215 0
216 0
217 0
-218 0
219 0
1 15 29 43 57 71 85 99 113 127 141 155 169 183 0
2 16 30 44 58 72 86 100 114 128 142 156 170 184 0
3 17 31 45 59 73 87 101 115 129 143 157 171 185 0
4 18 32 46 60 74 88 102 116 130 144 158 172 186 0
5 19 33 47 61 75 89 103 117 131 145 159 173 187 0
6 20 34 48 62 76 90 104 118 132 146 160 174 188 0
7 21 35 49 63 77 91 105 119 133 147 161 175 189 0
8 22 36 50 64 78 92 106 120 134 148 162 176 190 0
9 23 37 51 65 79 93 107 121 135 149 163 177 191 0
10 24 38 52 66 80 94 108 122 136 150 164 178 192 0
11 25 39 53 67 81 95 109 123 137 151 165 179 193 0
12 26 40 54 68 82 96 110 124 138 152 166 180 194 0
13 27 41 55 69 83 97 111 125 139 153 167 181 195 0
14 28 42 56 70 84 98 112 126 140 154 168 182 196 0
-542 198 0
-542 215 0
-543 198 0
-543 215 0
-1 542 543 0
-544 197 0
-544 215 0
-545 197 0
-545 215 0
-546 199 0
-546 209 0
-547 199 0
-547 209 0
-548 202 0
-548 208 0
-549 202 0
-549 208 0
-2 544 545 546 547 548 549 0
-550 198 0
-550 209 0
-551 198 0
-551 209 0
-552 200 0
-552 216 0
-553 200 0
-553 216 0
-554 203 0
-554 208 0
-555 203 0
-555 208 0
-3 550 551 552 553 554 555 0
-556 199 0
-556 216 0
-557 199 0
-557 216 0
-558 201 0
-558 219 0
-559 201 0
-559 219 0
-4 556 557 558 559 0
-560 200 0
-560 219 0
-561 200 0
-561 219 0
-5 560 561 0
-562 198 0
-562 208 0
-563 198 0
-563 208 0
-564 203 0
-564 209 0
-565 203 0
-565 209 0
-566 204 0
-566 207 0
-567 204 0
-567 207 0
-6 562 563 564 565 566 567 0
-568 202 0
-568 207 0
-569 202 0
-569 207 0
-570 205 0
-570 212 0
-571 205 0
-571 212 0
-7 568 569 570 571 0
-572 204 0
-572 212 0
-573 204 0
-573 212 0
-8 572 573 0
-9 0
-574 211 0
-574 219 0
-575 211 0
-575 219 0
-576 212 0
-576 217 0
-577 212 0
-577 217 0
-10 574 575 576 577 0
-578 210 0
-578 219 0
-579 210 0
-579 219 0
-580 212 0
-580 218 0
-581 212 0
-581 218 0
-582 213 0
-582 215 0
-583 213 0
-583 215 0
-11 578 579 580 581 582 583 0
-584 211 0
-584 215 0
-585 211 0
-585 215 0
-12 584 585 0
-586 215 0
-586 217 0
-587 215 0
-587 217 0
-13 586 587 0
-588 211 0
-588 212 0
-589 211 0
-589 212 0
-590 217 0
-590 219 0
-591 217 0
-591 219 0
-14 588 589 590 591 0
-592 221 0
-592 238 0
-593 221 0
-593 238 0
-15 592 593 0
-594 220 0
-594 238 0
-595 220 0
-595 238 0
-596 222 0
-596 232 0
-597 222 0
-597 232 0
-598 225 0
-598 231 0
-599 225 0
-599 231 0
-16 594 595 596 597 598 599 0
-600 221 0
-600 232 0
-601 221 0
-601 232 0
-602 223 0
-602 239 0
-603 223 0
-603 239 0
-604 226 0
-604 231 0
-605 226 0
-605 231 0
-17 600 601 602 603 604 605 0
-606 222 0
-606 239 0
-607 222 0
-607 239 0
-608 224 0
-608 242 0
-609 224 0
-609 242 0
-18 606 607 608 609 0
-610 223 0
-610 242 0
-611 223 0
-611 242 0
-19 610 611 0
-612 221 0
-612 231 0
-613 221 0
-613 231 0
-614 226 0
-614 232 0
-615 226 0
-615 232 0
-616 227 0
-616 230 0
-617 227 0
-617 230 0
-20 612 613 614 615 616 617 0
-618 225 0
-618 230 0
-619 225 0
-619 230 0
-620 228 0
-620 235 0
-621 228 0
-621 235 0
-21 618 619 620 621 0
-622 227 0
-622 235 0
-623 227 0
-623 235 0
-22 622 623 0
-23 0
-624 234 0
-624 242 0
-625 234 0
-625 242 0
-626 235 0
-626 240 0
-627 235 0
-627 240 0
-24 624 625 626 627 0
-628 233 0
-628 242 0
-629 233 0
-629 242 0
-630 235 0
-630 241 0
-631 235 0
-631 241 0
-632 236 0
-632 238 0
-633 236 0
-633 238 0
-25 628 629 630 631 632 633 0
-634 234 0
-634 238 0
-635 234 0
-635 238 0
-26 634 635 0
-636 238 0
-636 240 0
-637 238 0
-637 240 0
-27 636 637 0
-638 234 0
-638 235 0
-639 234 0
-639 235 0
-640 240 0
-640 242 0
-641 240 0
-641 242 0
-28 638 639 640 641 0
-642 244 0
-642 261 0
-643 244 0
-643 261 0
-29 642 643 0
-644 243 0
-644 261 0
-645 243 0
-645 261 0
-646 245 0
-646 255 0
-647 245 0
-647 255 0
-648 248 0
-648 254 0
-649 248 0
-649 254 0
-30 644 645 646 647 648 649 0
-650 244 0
-650 255 0
-651 244 0
-651 255 0
-652 246 0
-652 262 0
-653 246 0
-653 262 0
-654 249 0
-654 254 0
-655 249 0
-655 254 0
-31 650 651 652 653 654 655 0
-656 245 0
-656 262 0
-657 245 0
-657 262 0
-658 247 0
-658 265 0
-659 247 0
-659 265 0
-32 656 657 658 659 0
-660 246 0
-660 265 0
-661 246 0
-661 265 0
-33 660 661 0
-662 244 0
-662 254 0
-663 244 0
-663 254 0
-664 249 0
-664 255 0
-665 249 0
-665 255 0
-666 250 0
-666 253 0
-667 250 0
-667 253 0
-34 662 663 664 665 666 667 0
-668 248 0
-668 253 0
-669 248 0
-669 253 0
-670 251 0
-670 258 0
-671 251 0
-671 258 0
-35 668 669 670 671 0
-672 250 0
-672 258 0
-673 250 0
-673 258 0
-36 672 673 0
-37 0
-674 257 0
-674 265 0
-675 257 0
-675 265 0
-676 258 0
-676 263 0
-677 258 0
-677 263 0
-38 674 675 676 677 0
-678 256 0
-678 265 0
-679 256 0
-679 265 0
-680 258 0
-680 264 0
-681 258 0
-681 264 0
-682 259 0
-682 261 0
-683 259 0
-683 261 0
-39 678 679 680 681 682 683 0
-684 257 0
-684 261 0
-685 257 0
-685 261 0
-40 684 685 0
-686 261 0
-686 263 0
-687 261 0
-687 263 0
-41 686 687 0
-688 257 0
-688 258 0
-689 257 0
-689 258 0
-690 263 0
-690 265 0
-691 263 0
-691 265 0
-42 688 689 690 691 0
-692 267 0
-692 284 0
-693 267 0
-693 284 0
-43 692 693 0
-694 266 0
-694 284 0
-695 266 0
-695 284 0
-696 268 0
-696 278 0
-697 268 0
-697 278 0
-698 271 0
-698 277 0
-699 271 0
-699 277 0
-44 694 695 696 697 698 699 0
-700 267 0
-700 278 0
-701 267 0
-701 278 0
-702 269 0
-702 285 0
-703 269 0
-703 285 0
-704 272 0
-704 277 0
-705 272 0
-705 277 0
-45 700 701 702 703 704 705 0
-706 268 0
-706 285 0
-707 268 0
-707 285 0
-708 270 0
-708 288 0
-709 270 0
-709 288 0
-46 706 707 708 709 0
-710 269 0
-710 288 0
-711 269 0
-711 288 0
-47 710 711 0
-712 267 0
-712 277 0
-713 267 0
-713 277 0
-714 272 0
-714 278 0
-715 272 0
-715 278 0
-716 273 0
-716 276 0
-717 273 0
-717 276 0
-48 712 713 714 715 716 717 0
-718 271 0
-718 276 0
-719 271 0
-719 276 0
-720 274 0
-720 281 0
-721 274 0
-721 281 0
-49 718 719 720 721 0
-722 273 0
-722 281 0
-723 273 0
-723 281 0
-50 722 723 0
-51 0
-724 280 0
-724 288 0
-725 280 0
-725 288 0
-726 281 0
-726 286 0
-727 281 0
-727 286 0
-52 724 725 726 727 0
-728 279 0
-728 288 0
-729 279 0
-729 288 0
-730 281 0
-730 287 0
-731 281 0
-731 287 0
-732 282 0
-732 284 0
-733 282 0
-733 284 0
-53 728 729 730 731 732 733 0
-734 280 0
-734 284 0
-735 280 0
-735 284 0
-54 734 735 0
-736 284 0
-736 286 0
-737 284 0
-737 286 0
-55 736 737 0
-738 280 0
-738 281 0
-739 280 0
-739 281 0
-740 286 0
-740 288 0
-741 286 0
-741 288 0
-56 738 739 740 741 0
-742 290 0
-742 307 0
-743 290 0
-743 307 0
-57 742 743 0
-744 289 0
-744 307 0
-745 289 0
-745 307 0
-746 291 0
-746 301 0
-747 291 0
-747 301 0
-748 294 0
-748 300 0
-749 294 0
-749 300 0
-58 744 745 746 747 748 749 0
-750 290 0
-750 301 0
-751 290 0
-751 301 0
-752 292 0
-752 308 0
-753 292 0
-753 308 0
-754 295 0
-754 300 0
-755 295 0
-755 300 0
-59 750 751 752 753 754 755 0
-756 291 0
-756 308 0
-757 291 0
-757 308 0
-758 293 0
-758 311 0
-759 293 0
-759 311 0
-60 756 757 758 759 0
-760 292 0
-760 311 0
-761 292 0
-761 311 0
-61 760 761 0
-762 290 0
-762 300 0
-763 290 0
-763 300 0
-764 295 0
-764 301 0
-765 295 0
-765 301 0
-766 296 0
-766 299 0
-767 296 0
-767 299 0
-62 762 763 764 765 766 767 0
-768 294 0
-768 299 0
-769 294 0
-769 299 0
-770 297 0
-770 304 0
-771 297 0
-771 304 0
-63 768 769 770 771 0
-772 296 0
-772 304 0
-773 296 0
-773 304 0
-64 772 773 0
-65 0
-774 303 0
-774 311 0
-775 303 0
-775 311 0
-776 304 0
-776 309 0
-777 304 0
-777 309 0
-66 774 775 776 777 0
-778 302 0
-778 311 0
-779 302 0
-779 311 0
-780 304 0
-780 310 0
-781 304 0
-781 310 0
-782 305 0
-782 307 0
-783 305 0
-783 307 0
-67 778 779 780 781 782 783 0
-784 303 0
-784 307 0
-785 303 0
-785 307 0
-68 784 785 0
-786 307 0
-786 309 0
-787 307 0
-787 309 0
-69 786 787 0
-788 303 0
-788 304 0
-789 303 0
-789 304 0
-790 309 0
-790 311 0
-791 309 0
-791 311 0
-70 788 789 790 791 0
-792 313 0
-792 330 0
-793 313 0
-793 330 0
-71 792 793 0
-794 312 0
-794 330 0
-795 312 0
-795 330 0
-796 314 0
-796 324 0
-797 314 0
-797 324 0
-798 317 0
-798 323 0
-799 317 0
-799 323 0
-72 794 795 796 797 798 799 0
-800 313 0
-800 324 0
-801 313 0
-801 324 0
-802 315 0
-802 331 0
-803 315 0
-803 331 0
-804 318 0
-804 323 0
-805 318 0
-805 323 0
-73 800 801 802 803 804 805 0
-806 314 0
-806 331 0
-807 314 0
-807 331 0
-808 316 0
-808 334 0
-809 316 0
-809 334 0
-74 806 807 808 809 0
-810 315 0
-810 334 0
-811 315 0
-811 334 0
-75 810 811 0
-812 313 0
-812 323 0
-813 313 0
-813 323 0
-814 318 0
-814 324 0
-815 318 0
-815 324 0
-816 319 0
-816 322 0
-817 319 0
-817 322 0
-76 812 813 814 815 816 817 0
-818 317 0
-818 322 0
-819 317 0
-819 322 0
-820 320 0
-820 327 0
-821 320 0
-821 327 0
-77 818 819 820 821 0
-822 319 0
-822 327 0
-823 319 0
-823 327 0
-78 822 823 0
-79 0
-824 326 0
-824 334 0
-825 326 0
-825 334 0
-826 327 0
-826 332 0
-827 327 0
-827 332 0
-80 824 825 826 827 0
-828 325 0
-828 334 0
-829 325 0
-829 334 0
-830 327 0
-830 333 0
-831 327 0
-831 333 0
-832 328 0
-832 330 0
-833 328 0
-833 330 0
-81 828 829 830 831 832 833 0
-834 326 0
-834 330 0
-835 326 0
-835 330 0
-82 834 835 0
-836 330 0
-836 332 0
-837 330 0
-837 332 0
-83 836 837 0
-838 326 0
-838 327 0
-839 326 0
-839 327 0
-840 332 0
-840 334 0
-841 332 0
-841 334 0
-84 838 839 840 841 0
-842 336 0
-842 353 0
-843 336 0
-843 353 0
-85 842 843 0
-844 335 0
-844 353 0
-845 335 0
-845 353 0
-846 337 0
-846 347 0
-847 337 0
-847 347 0
-848 340 0
-848 346 0
-849 340 0
-849 346 0
-86 844 845 846 847 848 849 0
-850 336 0
-850 347 0
-851 336 0
-851 347 0
-852 338 0
-852 354 0
-853 338 0
-853 354 0
-854 341 0
-854 346 0
-855 341 0
-855 346 0
-87 850 851 852 853 854 855 0
-856 337 0
-856 354 0
-857 337 0
-857 354 0
-858 339 0
-858 357 0
-859 339 0
-859 357 0
-88 856 857 858 859 0
-860 338 0
-860 357 0
-861 338 0
-861 357 0
-89 860 861 0
-862 336 0
-862 346 0
-863 336 0
-863 346 0
-864 341 0
-864 347 0
-865 341 0
-865 347 0
-866 342 0
-866 345 0
-867 342 0
-867 345 0
-90 862 863 864 865 866 867 0
-868 340 0
-868 345 0
-869 340 0
-869 345 0
-870 343 0
-870 350 0
-871 343 0
-871 350 0
-91 868 869 870 871 0
-872 342 0
-872 350 0
-873 342 0
-873 350 0
-92 872 873 0
-93 0
-874 349 0
-874 357 0
-875 349 0
-875 357 0
-876 350 0
-876 355 0
-877 350 0
-877 355 0
-94 874 875 876 877 0
-878 348 0
-878 357 0
-879 348 0
-879 357 0
-880 350 0
-880 356 0
-881 350 0
-881 356 0
-882 351 0
-882 353 0
-883 351 0
-883 353 0
-95 878 879 880 881 882 883 0
-884 349 0
-884 353 0
-885 349 0
-885 353 0
-96 884 885 0
-886 353 0
-886 355 0
-887 353 0
-887 355 0
-97 886 887 0
-888 349 0
-888 350 0
-889 349 0
-889 350 0
-890 355 0
-890 357 0
-891 355 0
-891 357 0
-98 888 889 890 891 0
-892 359 0
-892 376 0
-893 359 0
-893 376 0
-99 892 893 0
-894 358 0
-894 376 0
-895 358 0
-895 376 0
-896 360 0
-896 370 0
-897 360 0
-897 370 0
-898 363 0
-898 369 0
-899 363 0
-899 369 0
-100 894 895 896 897 898 899 0
-900 359 0
-900 370 0
-901 359 0
-901 370 0
-902 361 0
-902 377 0
-903 361 0
-903 377 0
-904 364 0
-904 369 0
-905 364 0
-905 369 0
-101 900 901 902 903 904 905 0
-906 360 0
-906 377 0
-907 360 0
-907 377 0
-908 362 0
-908 380 0
-909 362 0
-909 380 0
-102 906 907 908 909 0
-910 361 0
-910 380 0
-911 361 0
-911 380 0
-103 910 911 0
-912 359 0
-912 369 0
-913 359 0
-913 369 0
-914 364 0
-914 370 0
-915 364 0
-915 370 0
-916 365 0
-916 368 0
-917 365 0
-917 368 0
-104 912 913 914 915 916 917 0
-918 363 0
-918 368 0
-919 363 0
-919 368 0
-920 366 0
-920 373 0
-921 366 0
-921 373 0
-105 918 919 920 921 0
-922 365 0
-922 373 0
-923 365 0
-923 373 0
-106 922 923 0
-107 0
-924 372 0
-924 380 0
-925 372 0
-925 380 0
-926 373 0
-926 378 0
-927 373 0
-927 378 0
-108 924 925 926 927 0
-928 371 0
-928 380 0
-929 371 0
-929 380 0
-930 373 0
-930 379 0
-931 373 0
-931 379 0
-932 374 0
-932 376 0
-933 374 0
-933 376 0
-109 928 929 930 931 932 933 0
-934 372 0
-934 376 0
-935 372 0
-935 376 0
-110 934 935 0
-936 376 0
-936 378 0
-937 376 0
-937 378 0
-111 936 937 0
-938 372 0
-938 373 0
-939 372 0
-939 373 0
-940 378 0
-940 380 0
-941 378 0
-941 380 0
-112 938 939 940 941 0
-942 382 0
-942 399 0
-943 382 0
-943 399 0
-113 942 943 0
-944 381 0
-944 399 0
-945 381 0
-945 399 0
-946 383 0
-946 393 0
-947 383 0
-947 393 0
-948 386 0
-948 392 0
-949 386 0
-949 392 0
-114 944 945 946 947 948 949 0
-950 382 0
-950 393 0
-951 382 0
-951 393 0
-952 384 0
-952 400 0
-953 384 0
-953 400 0
-954 387 0
-954 392 0
-955 387 0
-955 392 0
-115 950 951 952 953 954 955 0
-956 383 0
-956 400 0
-957 383 0
-957 400 0
-958 385 0
-958 403 0
-959 385 0
-959 403 0
-116 956 957 958 959 0
-960 384 0
-960 403 0
-961 384 0
-961 403 0
-117 960 961 0
-962 382 0
-962 392 0
-963 382 0
-963 392 0
-964 387 0
-964 393 0
-965 387 0
-965 393 0
-966 388 0
-966 391 0
-967 388 0
-967 391 0
-118 962 963 964 965 966 967 0
-968 386 0
-968 391 0
-969 386 0
-969 391 0
-970 389 0
-970 396 0
-971 389 0
-971 396 0
-119 968 969 970 971 0
-972 388 0
-972 396 0
-973 388 0
-973 396 0
-120 972 973 0
-121 0
-974 395 0
-974 403 0
-975 395 0
-975 403 0
-976 396 0
-976 401 0
-977 396 0
-977 401 0
-122 974 975 976 977 0
-978 394 0
-978 403 0
-979 394 0
-979 403 0
-980 396 0
-980 402 0
-981 396 0
-981 402 0
-982 397 0
-982 399 0
-983 397 0
-983 399 0
-123 978 979 980 981 982 983 0
-984 395 0
-984 399 0
-985 395 0
-985 399 0
-124 984 985 0
-986 399 0
-986 401 0
-987 399 0
-987 401 0
-125 986 987 0
-988 395 0
-988 396 0
-989 395 0
-989 396 0
-990 401 0
-990 403 0
-991 401 0
-991 403 0
-126 988 989 990 991 0
-992 405 0
-992 422 0
-993 405 0
-993 422 0
-127 992 993 0
-994 404 0
-994 422 0
-995 404 0
-995 422 0
-996 406 0
-996 416 0
-997 406 0
-997 416 0
-998 409 0
-998 415 0
-999 409 0
-999 415 0
-128 994 995 996 997 998 999 0
-1000 405 0
-1000 416 0
-1001 405 0
-1001 416 0
-1002 407 0
-1002 423 0
-1003 407 0
-1003 423 0
-1004 410 0
-1004 415 0
-1005 410 0
-1005 415 0
-129 1000 1001 1002 1003 1004 1005 0
-1006 406 0
-1006 423 0
-1007 406 0
-1007 423 0
-1008 408 0
-1008 426 0
-1009 408 0
-1009 426 0
-130 1006 1007 1008 1009 0
-1010 407 0
-1010 426 0
-1011 407 0
-1011 426 0
-131 1010 1011 0
-1012 405 0
-1012 415 0
-1013 405 0
-1013 415 0
-1014 410 0
-1014 416 0
-1015 410 0
-1015 416 0
-1016 411 0
-1016 414 0
-1017 411 0
-1017 414 0
-132 1012 1013 1014 1015 1016 1017 0
-1018 409 0
-1018 414 0
-1019 409 0
-1019 414 0
-1020 412 0
-1020 419 0
-1021 412 0
-1021 419 0
-133 1018 1019 1020 1021 0
-1022 411 0
-1022 419 0
-1023 411 0
-1023 419 0
-134 1022 1023 0
-135 0
-1024 418 0
-1024 426 0
-1025 418 0
-1025 426 0
-1026 419 0
-1026 424 0
-1027 419 0
-1027 424 0
-136 1024 1025 1026 1027 0
-1028 417 0
-1028 426 0
-1029 417 0
-1029 426 0
-1030 419 0
-1030 425 0
-1031 419 0
-1031 425 0
-1032 420 0
-1032 422 0
-1033 420 0
-1033 422 0
-137 1028 1029 1030 1031 1032 1033 0
-1034 418 0
-1034 422 0
-1035 418 0
-1035 422 0
-138 1034 1035 0
-1036 422 0
-1036 424 0
-1037 422 0
-1037 424 0
-139 1036 1037 0
-1038 418 0
-1038 419 0
-1039 418 0
-1039 419 0
-1040 424 0
-1040 426 0
-1041 424 0
-1041 426 0
-140 1038 1039 1040 1041 0
-1042 428 0
-1042 445 0
-1043 428 0
-1043 445 0
-141 1042 1043 0
-1044 427 0
-1044 445 0
-1045 427 0
-1045 445 0
-1046 429 0
-1046 439 0
-1047 429 0
-1047 439 0
-1048 432 0
-1048 438 0
-1049 432 0
-1049 438 0
-142 1044 1045 1046 1047 1048 1049 0
-1050 428 0
-1050 439 0
-1051 428 0
-1051 439 0
-1052 430 0
-1052 446 0
-1053 430 0
-1053 446 0
-1054 433 0
-1054 438 0
-1055 433 0
-1055 438 0
-143 1050 1051 1052 1053 1054 1055 0
-1056 429 0
-1056 446 0
-1057 429 0
-1057 446 0
-1058 431 0
-1058 449 0
-1059 431 0
-1059 449 0
-144 1056 1057 1058 1059 0
-1060 430 0
-1060 449 0
-1061 430 0
-1061 449 0
-145 1060 1061 0
-1062 428 0
-1062 438 0
-1063 428 0
-1063 438 0
-1064 433 0
-1064 439 0
-1065 433 0
-1065 439 0
-1066 434 0
-1066 437 0
-1067 434 0
-1067 437 0
-146 1062 1063 1064 1065 1066 1067 0
-1068 432 0
-1068 437 0
-1069 432 0
-1069 437 0
-1070 435 0
-1070 442 0
-1071 435 0
-1071 442 0
-147 1068 1069 1070 1071 0
-1072 434 0
-1072 442 0
-1073 434 0
-1073 442 0
-148 1072 1073 0
-149 0
-1074 441 0
-1074 449 0
-1075 441 0
-1075 449 0
-1076 442 0
-1076 447 0
-1077 442 0
-1077 447 0
-150 1074 1075 1076 1077 0
-1078 440 0
-1078 449 0
-1079 440 0
-1079 449 0
-1080 442 0
-1080 448 0
-1081 442 0
-1081 448 0
-1082 443 0
-1082 445 0
-1083 443 0
-1083 445 0
-151 1078 1079 1080 1081 1082 1083 0
-1084 441 0
-1084 445 0
-1085 441 0
-1085 445 0
-152 1084 1085 0
-1086 445 0
-1086 447 0
-1087 445 0
-1087 447 0
-153 1086 1087 0
-1088 441 0
-1088 442 0
-1089 441 0
-1089 442 0
-1090 447 0
-1090 449 0
-1091 447 0
-1091 449 0
-154 1088 1089 1090 1091 0
-1092 451 0
-1092 468 0
-1093 451 0
-1093 468 0
-155 1092 1093 0
-1094 450 0
-1094 468 0
-1095 450 0
-1095 468 0
-1096 452 0
-1096 462 0
-1097 452 0
-1097 462 0
-1098 455 0
-1098 461 0
-1099 455 0
-1099 461 0
-156 1094 1095 1096 1097 1098 1099 0
-1100 451 0
-1100 462 0
-1101 451 0
-1101 462 0
-1102 453 0
-1102 469 0
-1103 453 0
-1103 469 0
-1104 456 0
-1104 461 0
-1105 456 0
-1105 461 0
-157 1100 1101 1102 1103 1104 1105 0
-1106 452 0
-1106 469 0
-1107 452 0
-1107 469 0
-1108 454 0
-1108 472 0
-1109 454 0
-1109 472 0
-158 1106 1107 1108 1109 0
-1110 453 0
-1110 472 0
-1111 453 0
-1111 472 0
-159 1110 1111 0
-1112 451 0
-1112 461 0
-1113 451 0
-1113 461 0
-1114 456 0
-1114 462 0
-1115 456 0
-1115 462 0
-1116 457 0
-1116 460 0
-1117 457 0
-1117 460 0
-160 1112 1113 1114 1115 1116 1117 0
-1118 455 0
-1118 460 0
-1119 455 0
-1119 460 0
-1120 458 0
-1120 465 0
-1121 458 0
-1121 465 0
-161 1118 1119 1120 1121 0
-1122 457 0
-1122 465 0
-1123 457 0
-1123 465 0
-162 1122 1123 0
-163 0
-1124 464 0
-1124 472 0
-1125 464 0
-1125 472 0
-1126 465 0
-1126 470 0
-1127 465 0
-1127 470 0
-164 1124 1125 1126 1127 0
-1128 463 0
-1128 472 0
-1129 463 0
-1129 472 0
-1130 465 0
-1130 471 0
-1131 465 0
-1131 471 0
-1132 466 0
-1132 468 0
-1133 466 0
-1133 468 0
-165 1128 1129 1130 1131 1132 1133 0
-1134 464 0
-1134 468 0
-1135 464 0
-1135 468 0
-166 1134 1135 0
-1136 468 0
-1136 470 0
-1137 468 0
-1137 470 0
-167 1136 1137 0
-1138 464 0
-1138 465 0
-1139 464 0
-1139 465 0
-1140 470 0
-1140 472 0
-1141 470 0
-1141 472 0
-168 1138 1139 1140 1141 0
-1142 474 0
-1142 491 0
-1143 474 0
-1143 491 0
-169 1142 1143 0
-1144 473 0
-1144 491 0
-1145 473 0
-1145 491 0
-1146 475 0
-1146 485 0
-1147 475 0
-1147 485 0
-1148 478 0
-1148 484 0
-1149 478 0
-1149 484 0
-170 1144 1145 1146 1147 1148 1149 0
-1150 474 0
-1150 485 0
-1151 474 0
-1151 485 0
-1152 476 0
-1152 492 0
-1153 476 0
-1153 492 0
-1154 479 0
-1154 484 0
-1155 479 0
-1155 484 0
-171 1150 1151 1152 1153 1154 1155 0
-1156 475 0
-1156 492 0
-1157 475 0
-1157 492 0
-1158 477 0
-1158 495 0
-1159 477 0
-1159 495 0
-172 1156 1157 1158 1159 0
-1160 476 0
-1160 495 0
-1161 476 0
-1161 495 0
-173 1160 1161 0
-1162 474 0
-1162 484 0
-1163 474 0
-1163 484 0
-1164 479 0
-1164 485 0
-1165 479 0
-1165 485 0
-1166 480 0
-1166 483 0
-1167 480 0
-1167 483 0
-174 1162 1163 1164 1165 1166 1167 0
-1168 478 0
-1168 483 0
-1169 478 0
-1169 483 0
-1170 481 0
-1170 488 0
-1171 481 0
-1171 488 0
-175 1168 1169 1170 1171 0
-1172 480 0
-1172 488 0
-1173 480 0
-1173 488 0
-176 1172 1173 0
-177 0
-1174 487 0
-1174 495 0
-1175 487 0
-1175 495 0
-1176 488 0
-1176 493 0
-1177 488 0
-1177 493 0
-178 1174 1175 1176 1177 0
-1178 486 0
-1178 495 0
-1179 486 0
-1179 495 0
-1180 488 0
-1180 494 0
-1181 488 0
-1181 494 0
-1182 489 0
-1182 491 0
-1183 489 0
-1183 491 0
-179 1178 1179 1180 1181 1182 1183 0
-1184 487 0
-1184 491 0
-1185 487 0
-1185 491 0
-180 1184 1185 0
-1186 491 0
-1186 493 0
-1187 491 0
-1187 493 0
-181 1186 1187 0
-1188 487 0
-1188 488 0
-1189 487 0
-1189 488 0
-1190 493 0
-1190 495 0
-1191 493 0
-1191 495 0
-182 1188 1189 1190 1191 0
-1192 497 0
-1192 514 0
-1193 497 0
-1193 514 0
-183 1192 1193 0
-1194 496 0
-1194 514 0
-1195 496 0
-1195 514 0
-1196 498 0
-1196 508 0
-1197 498 0
-1197 508 0
-1198 501 0
-1198 507 0
-1199 501 0
-1199 507 0
-184 1194 1195 1196 1197 1198 1199 0
-1200 497 0
-1200 508 0
-1201 497 0
-1201 508 0
-1202 499 0
-1202 515 0
-1203 499 0
-1203 515 0
-1204 502 0
-1204 507 0
-1205 502 0
-1205 507 0
-185 1200 1201 1202 1203 1204 1205 0
-1206 498 0
-1206 515 0
-1207 498 0
-1207 515 0
-1208 500 0
-1208 518 0
-1209 500 0
-1209 518 0
-186 1206 1207 1208 1209 0
-1210 499 0
-1210 518 0
-1211 499 0
-1211 518 0
-187 1210 1211 0
-1212 497 0
-1212 507 0
-1213 497 0
-1213 507 0
-1214 502 0
-1214 508 0
-1215 502 0
-1215 508 0
-1216 503 0
-1216 506 0
-1217 503 0
-1217 506 0
-188 1212 1213 1214 1215 1216 1217 0
-1218 501 0
-1218 506 0
-1219 501 0
-1219 506 0
-1220 504 0
-1220 511 0
-1221 504 0
-1221 511 0
-189 1218 1219 1220 1221 0
-1222 503 0
-1222 511 0
-1223 503 0
-1223 511 0
-190 1222 1223 0
-191 0
-1224 510 0
-1224 518 0
-1225 510 0
-1225 518 0
-1226 511 0
-1226 516 0
-1227 511 0
-1227 516 0
-192 1224 1225 1226 1227 0
-1228 509 0
-1228 518 0
-1229 509 0
-1229 518 0
-1230 511 0
-1230 517 0
-1231 511 0
-1231 517 0
-1232 512 0
-1232 514 0
-1233 512 0
-1233 514 0
-193 1228 1229 1230 1231 1232 1233 0
-1234 510 0
-1234 514 0
-1235 510 0
-1235 514 0
-194 1234 1235 0
-1236 514 0
-1236 516 0
-1237 514 0
-1237 516 0
-195 1236 1237 0
-1238 510 0
-1238 511 0
-1239 510 0
-1239 511 0
-1240 516 0
-1240 518 0
-1241 516 0
-1241 518 0
-196 1238 1239 1240 1241 0
