p cnf 1269 3285
-1 -2 0
-1 -3 0
-1 -4 0
-1 -5 0
-1 -6 0
-1 -7 0
-1 -8 0
-1 -9 0
-1 -10 0
-1 -11 0
-1 -12 0
-1 -13 0
-1 -14 0
-2 -3 0
-2 -4 0
-2 -5 0
-2 -6 0
-2 -7 0
-2 -8 0
-2 -9 0
-2 -10 0
-2 -11 0
-2 -12 0
-2 -13 0
-2 -14 0
-3 -4 0
-3 -5 0
-3 -6 0
-3 -7 0
-3 -8 0
-3 -9 0
-3 -10 0
-3 -11 0
-3 -12 0
-3 -13 0
-3 -14 0
-4 -5 0
-4 -6 0
-4 -7 0
-4 -8 0
-4 -9 0
-4 -10 0
-4 -11 0
-4 -12 0
-4 -13 0
-4 -14 0
-5 -6 0
-5 -7 0
-5 -8 0
-5 -9 0
-5 -10 0
-5 -11 0
-5 -12 0
-5 -13 0
-5 -14 0
-6 -7 0
-6 -8 0
-6 -9 0
-6 -10 0
-6 -11 0
-6 -12 0
-6 -13 0
-6 -14 0
-7 -8 0
-7 -9 0
-7 -10 0
-7 -11 0
-7 -12 0
-7 -13 0
-7 -14 0
-8 -9 0
-8 -10 0
-8 -11 0
-8 -12 0
-8 -13 0
-8 -14 0
-9 -10 0
-9 -11 0
-9 -12 0
-9 -13 0
-9 -14 0
-10 -11 0
-10 -12 0
-10 -13 0
-10 -14 0
-11 -12 0
-11 -13 0
-11 -14 0
-12 -13 0
-12 -14 0
-13 -14 0
-220 197 1 0
-221 198 2 0
-222 199 3 0
-223 200 4 0
-224 201 5 0
-225 202 6 0
-226 203 0
-227 204 7 0
-228 205 8 0
-229 206 9 0
-230 207 0
-231 208 10 0
-232 209 0
-233 210 0
-234 211 11 0
-235 212 12 0
-236 213 0
-237 214 13 0
-238 215 0
-239 216 0
-240 217 0
-241 218 14 0
-242 219 0
-15 -16 0
-15 -17 0
-15 -18 0
-15 -19 0
-15 -20 0
-15 -21 0
-15 -22 0
-15 -23 0
-15 -24 0
-15 -25 0
-15 -26 0
-15 -27 0
-15 -28 0
-16 -17 0
-16 -18 0
-16 -19 0
-16 -20 0
-16 -21 0
-16 -22 0
-16 -23 0
-16 -24 0
-16 -25 0
-16 -26 0
-16 -27 0
-16 -28 0
-17 -18 0
-17 -19 0
-17 -20 0
-17 -21 0
-17 -22 0
-17 -23 0
-17 -24 0
-17 -25 0
-17 -26 0
-17 -27 0
-17 -28 0
-18 -19 0
-18 -20 0
-18 -21 0
-18 -22 0
-18 -23 0
-18 -24 0
-18 -25 0
-18 -26 0
-18 -27 0
-18 -28 0
-19 -20 0
-19 -21 0
-19 -22 0
-19 -23 0
-19 -24 0
-19 -25 0
-19 -26 0
-19 -27 0
-19 -28 0
-20 -21 0
-20 -22 0
-20 -23 0
-20 -24 0
-20 -25 0
-20 -26 0
-20 -27 0
-20 -28 0
-21 -22 0
-21 -23 0
-21 -24 0
-21 -25 0
-21 -26 0
-21 -27 0
-21 -28 0
-22 -23 0
-22 -24 0
-22 -25 0
-22 -26 0
-22 -27 0
-22 -28 0
-23 -24 0
-23 -25 0
-23 -26 0
-23 -27 0
-23 -28 0
-24 -25 0
-24 -26 0
-24 -27 0
-24 -28 0
-25 -26 0
-25 -27 0
-25 -28 0
-26 -27 0
-26 -28 0
-27 -28 0
-243 220 15 0
-244 221 16 0
-245 222 17 0
-246 223 18 0
-247 224 19 0
-248 225 20 0
-249 226 0
-250 227 21 0
-251 228 22 0
-252 229 23 0
-253 230 0
-254 231 24 0
-255 232 0
-256 233 0
-257 234 25 0
-258 235 26 0
-259 236 0
-260 237 27 0
-261 238 0
-262 239 0
-263 240 0
-264 241 28 0
-265 242 0
-29 -30 0
-29 -31 0
-29 -32 0
-29 -33 0
-29 -34 0
-29 -35 0
-29 -36 0
-29 -37 0
-29 -38 0
-29 -39 0
-29 -40 0
-29 -41 0
-29 -42 0
-30 -31 0
-30 -32 0
-30 -33 0
-30 -34 0
-30 -35 0
-30 -36 0
-30 -37 0
-30 -38 0
-30 -39 0
-30 -40 0
-30 -41 0
-30 -42 0
-31 -32 0
-31 -33 0
-31 -34 0
-31 -35 0
-31 -36 0
-31 -37 0
-31 -38 0
-31 -39 0
-31 -40 0
-31 -41 0
-31 -42 0
-32 -33 0
-32 -34 0
-32 -35 0
-32 -36 0
-32 -37 0
-32 -38 0
-32 -39 0
-32 -40 0
-32 -41 0
-32 -42 0
-33 -34 0
-33 -35 0
-33 -36 0
-33 -37 0
-33 -38 0
-33 -39 0
-33 -40 0
-33 -41 0
-33 -42 0
-34 -35 0
-34 -36 0
-34 -37 0
-34 -38 0
-34 -39 0
-34 -40 0
-34 -41 0
-34 -42 0
-35 -36 0
-35 -37 0
-35 -38 0
-35 -39 0
-35 -40 0
-35 -41 0
-35 -42 0
-36 -37 0
-36 -38 0
-36 -39 0
-36 -40 0
-36 -41 0
-36 -42 0
-37 -38 0
-37 -39 0
-37 -40 0
-37 -41 0
-37 -42 0
-38 -39 0
-38 -40 0
-38 -41 0
-38 -42 0
-39 -40 0
-39 -41 0
-39 -42 0
-40 -41 0
-40 -42 0
-41 -42 0
-266 243 29 0
-267 244 30 0
-268 245 31 0
-269 246 32 0
-270 247 33 0
-271 248 34 0
-272 249 0
-273 250 35 0
-274 251 36 0
-275 252 37 0
-276 253 0
-277 254 38 0
-278 255 0
-279 256 0
-280 257 39 0
-281 258 40 0
-282 259 0
-283 260 41 0
-284 261 0
-285 262 0
-286 263 0
-287 264 42 0
-288 265 0
-43 -44 0
-43 -45 0
-43 -46 0
-43 -47 0
-43 -48 0
-43 -49 0
-43 -50 0
-43 -51 0
-43 -52 0
-43 -53 0
-43 -54 0
-43 -55 0
-43 -56 0
-44 -45 0
-44 -46 0
-44 -47 0
-44 -48 0
-44 -49 0
-44 -50 0
-44 -51 0
-44 -52 0
-44 -53 0
-44 -54 0
-44 -55 0
-44 -56 0
-45 -46 0
-45 -47 0
-45 -48 0
-45 -49 0
-45 -50 0
-45 -51 0
-45 -52 0
-45 -53 0
-45 -54 0
-45 -55 0
-45 -56 0
-46 -47 0
-46 -48 0
-46 -49 0
-46 -50 0
-46 -51 0
-46 -52 0
-46 -53 0
-46 -54 0
-46 -55 0
-46 -56 0
-47 -48 0
-47 -49 0
-47 -50 0
-47 -51 0
-47 -52 0
-47 -53 0
-47 -54 0
-47 -55 0
-47 -56 0
-48 -49 0
-48 -50 0
-48 -51 0
-48 -52 0
-48 -53 0
-48 -54 0
-48 -55 0
-48 -56 0
-49 -50 0
-49 -51 0
-49 -52 0
-49 -53 0
-49 -54 0
-49 -55 0
-49 -56 0
-50 -51 0
-50 -52 0
-50 -53 0
-50 -54 0
-50 -55 0
-50 -56 0
-51 -52 0
-51 -53 0
-51 -54 0
-51 -55 0
-51 -56 0
-52 -53 0
-52 -54 0
-52 -55 0
-52 -56 0
-53 -54 0
-53 -55 0
-53 -56 0
-54 -55 0
-54 -56 0
-55 -56 0
-289 266 43 0
-290 267 44 0
-291 268 45 0
-292 269 46 0
-293 270 47 0
-294 271 48 0
-295 272 0
-296 273 49 0
-297 274 50 0
-298 275 51 0
-299 276 0
-300 277 52 0
-301 278 0
-302 279 0
-303 280 53 0
-304 281 54 0
-305 282 0
-306 283 55 0
-307 284 0
-308 285 0
-309 286 0
-310 287 56 0
-311 288 0
-57 -58 0
-57 -59 0
-57 -60 0
-57 -61 0
-57 -62 0
-57 -63 0
-57 -64 0
-57 -65 0
-57 -66 0
-57 -67 0
-57 -68 0
-57 -69 0
-57 -70 0
-58 -59 0
-58 -60 0
-58 -61 0
-58 -62 0
-58 -63 0
-58 -64 0
-58 -65 0
-58 -66 0
-58 -67 0
-58 -68 0
-58 -69 0
-58 -70 0
-59 -60 0
-59 -61 0
-59 -62 0
-59 -63 0
-59 -64 0
-59 -65 0
-59 -66 0
-59 -67 0
-59 -68 0
-59 -69 0
-59 -70 0
-60 -61 0
-60 -62 0
-60 -63 0
-60 -64 0
-60 -65 0
-60 -66 0
-60 -67 0
-60 -68 0
-60 -69 0
-60 -70 0
-61 -62 0
-61 -63 0
-61 -64 0
-61 -65 0
-61 -66 0
-61 -67 0
-61 -68 0
-61 -69 0
-61 -70 0
-62 -63 0
-62 -64 0
-62 -65 0
-62 -66 0
-62 -67 0
-62 -68 0
-62 -69 0
-62 -70 0
-63 -64 0
-63 -65 0
-63 -66 0
-63 -67 0
-63 -68 0
-63 -69 0
-63 -70 0
-64 -65 0
-64 -66 0
-64 -67 0
-64 -68 0
-64 -69 0
-64 -70 0
-65 -66 0
-65 -67 0
-65 -68 0
-65 -69 0
-65 -70 0
-66 -67 0
-66 -68 0
-66 -69 0
-66 -70 0
-67 -68 0
-67 -69 0
-67 -70 0
-68 -69 0
-68 -70 0
-69 -70 0
-312 289 57 0
-313 290 58 0
-314 291 59 0
-315 292 60 0
-316 293 61 0
-317 294 62 0
-318 295 0
-319 296 63 0
-320 297 64 0
-321 298 65 0
-322 299 0
-323 300 66 0
-324 301 0
-325 302 0
-326 303 67 0
-327 304 68 0
-328 305 0
-329 306 69 0
-330 307 0
-331 308 0
-332 309 0
-333 310 70 0
-334 311 0
-71 -72 0
-71 -73 0
-71 -74 0
-71 -75 0
-71 -76 0
-71 -77 0
-71 -78 0
-71 -79 0
-71 -80 0
-71 -81 0
-71 -82 0
-71 -83 0
-71 -84 0
-72 -73 0
-72 -74 0
-72 -75 0
-72 -76 0
-72 -77 0
-72 -78 0
-72 -79 0
-72 -80 0
-72 -81 0
-72 -82 0
-72 -83 0
-72 -84 0
-73 -74 0
-73 -75 0
-73 -76 0
-73 -77 0
-73 -78 0
-73 -79 0
-73 -80 0
-73 -81 0
-73 -82 0
-73 -83 0
-73 -84 0
-74 -75 0
-74 -76 0
-74 -77 0
-74 -78 0
-74 -79 0
-74 -80 0
-74 -81 0
-74 -82 0
-74 -83 0
-74 -84 0
-75 -76 0
-75 -77 0
-75 -78 0
-75 -79 0
-75 -80 0
-75 -81 0
-75 -82 0
-75 -83 0
-75 -84 0
-76 -77 0
-76 -78 0
-76 -79 0
-76 -80 0
-76 -81 0
-76 -82 0
-76 -83 0
-76 -84 0
-77 -78 0
-77 -79 0
-77 -80 0
-77 -81 0
-77 -82 0
-77 -83 0
-77 -84 0
-78 -79 0
-78 -80 0
-78 -81 0
-78 -82 0
-78 -83 0
-78 -84 0
-79 -80 0
-79 -81 0
-79 -82 0
-79 -83 0
-79 -84 0
-80 -81 0
-80 -82 0
-80 -83 0
-80 -84 0
-81 -82 0
-81 -83 0
-81 -84 0
-82 -83 0
-82 -84 0
-83 -84 0
-335 312 71 0
-336 313 72 0
-337 314 73 0
-338 315 74 0
-339 316 75 0
-340 317 76 0
-341 318 0
-342 319 77 0
-343 320 78 0
-344 321 79 0
-345 322 0
-346 323 80 0
-347 324 0
-348 325 0
-349 326 81 0
-350 327 82 0
-351 328 0
-352 329 83 0
-353 330 0
-354 331 0
-355 332 0
-356 333 84 0
-357 334 0
-85 -86 0
-85 -87 0
-85 -88 0
-85 -89 0
-85 -90 0
-85 -91 0
-85 -92 0
-85 -93 0
-85 -94 0
-85 -95 0
-85 -96 0
-85 -97 0
-85 -98 0
-86 -87 0
-86 -88 0
-86 -89 0
-86 -90 0
-86 -91 0
-86 -92 0
-86 -93 0
-86 -94 0
-86 -95 0
-86 -96 0
-86 -97 0
-86 -98 0
-87 -88 0
-87 -89 0
-87 -90 0
-87 -91 0
-87 -92 0
-87 -93 0
-87 -94 0
-87 -95 0
-87 -96 0
-87 -97 0
-87 -98 0
-88 -89 0
-88 -90 0
-88 -91 0
-88 -92 0
-88 -93 0
-88 -94 0
-88 -95 0
-88 -96 0
-88 -97 0
-88 -98 0
-89 -90 0
-89 -91 0
-89 -92 0
-89 -93 0
-89 -94 0
-89 -95 0
-89 -96 0
-89 -97 0
-89 -98 0
-90 -91 0
-90 -92 0
-90 -93 0
-90 -94 0
-90 -95 0
-90 -96 0
-90 -97 0
-90 -98 0
-91 -92 0
-91 -93 0
-91 -94 0
-91 -95 0
-91 -96 0
-91 -97 0
-91 -98 0
-92 -93 0
-92 -94 0
-92 -95 0
-92 -96 0
-92 -97 0
-92 -98 0
-93 -94 0
-93 -95 0
-93 -96 0
-93 -97 0
-93 -98 0
-94 -95 0
-94 -96 0
-94 -97 0
-94 -98 0
-95 -96 0
-95 -97 0
-95 -98 0
-96 -97 0
-96 -98 0
-97 -98 0
-358 335 85 0
-359 336 86 0
-360 337 87 0
-361 338 88 0
-362 339 89 0
-363 340 90 0
-364 341 0
-365 342 91 0
-366 343 92 0
-367 344 93 0
-368 345 0
-369 346 94 0
-370 347 0
-371 348 0
-372 349 95 0
-373 350 96 0
-374 351 0
-375 352 97 0
-376 353 0
-377 354 0
-378 355 0
-379 356 98 0
-380 357 0
-99 -100 0
-99 -101 0
-99 -102 0
-99 -103 0
-99 -104 0
-99 -105 0
-99 -106 0
-99 -107 0
-99 -108 0
-99 -109 0
-99 -110 0
-99 -111 0
-99 -112 0
-100 -101 0
-100 -102 0
-100 -103 0
-100 -104 0
-100 -105 0
-100 -106 0
-100 -107 0
-100 -108 0
-100 -109 0
-100 -110 0
-100 -111 0
-100 -112 0
-101 -102 0
-101 -103 0
-101 -104 0
-101 -105 0
-101 -106 0
-101 -107 0
-101 -108 0
-101 -109 0
-101 -110 0
-101 -111 0
-101 -112 0
-102 -103 0
-102 -104 0
-102 -105 0
-102 -106 0
-102 -107 0
-102 -108 0
-102 -109 0
-102 -110 0
-102 -111 0
-102 -112 0
-103 -104 0
-103 -105 0
-103 -106 0
-103 -107 0
-103 -108 0
-103 -109 0
-103 -110 0
-103 -111 0
-103 -112 0
-104 -105 0
-104 -106 0
-104 -107 0
-104 -108 0
-104 -109 0
-104 -110 0
-104 -111 0
-104 -112 0
-105 -106 0
-105 -107 0
-105 -108 0
-105 -109 0
-105 -110 0
-105 -111 0
-105 -112 0
-106 -107 0
-106 -108 0
-106 -109 0
-106 -110 0
-106 -111 0
-106 -112 0
-107 -108 0
-107 -109 0
-107 -110 0
-107 -111 0
-107 -112 0
-108 -109 0
-108 -110 0
-108 -111 0
-108 -112 0
-109 -110 0
-109 -111 0
-109 -112 0
-110 -111 0
-110 -112 0
-111 -112 0
-381 358 99 0
-382 359 100 0
-383 360 101 0
-384 361 102 0
-385 362 103 0
-386 363 104 0
-387 364 0
-388 365 105 0
-389 366 106 0
-390 367 107 0
-391 368 0
-392 369 108 0
-393 370 0
-394 371 0
-395 372 109 0
-396 373 110 0
-397 374 0
-398 375 111 0
-399 376 0
-400 377 0
-401 378 0
-402 379 112 0
-403 380 0
-113 -114 0
-113 -115 0
-113 -116 0
-113 -117 0
-113 -118 0
-113 -119 0
-113 -120 0
-113 -121 0
-113 -122 0
-113 -123 0
-113 -124 0
-113 -125 0
-113 -126 0
-114 -115 0
-114 -116 0
-114 -117 0
-114 -118 0
-114 -119 0
-114 -120 0
-114 -121 0
-114 -122 0
-114 -123 0
-114 -124 0
-114 -125 0
-114 -126 0
-115 -116 0
-115 -117 0
-115 -118 0
-115 -119 0
-115 -120 0
-115 -121 0
-115 -122 0
-115 -123 0
-115 -124 0
-115 -125 0
-115 -126 0
-116 -117 0
-116 -118 0
-116 -119 0
-116 -120 0
-116 -121 0
-116 -122 0
-116 -123 0
-116 -124 0
-116 -125 0
-116 -126 0
-117 -118 0
-117 -119 0
-117 -120 0
-117 -121 0
-117 -122 0
-117 -123 0
-117 -124 0
-117 -125 0
-117 -126 0
-118 -119 0
-118 -120 0
-118 -121 0
-118 -122 0
-118 -123 0
-118 -124 0
-118 -125 0
-118 -126 0
-119 -120 0
-119 -121 0
-119 -122 0
-119 -123 0
-119 -124 0
-119 -125 0
-119 -126 0
-120 -121 0
-120 -122 0
-120 -123 0
-120 -124 0
-120 -125 0
-120 -126 0
-121 -122 0
-121 -123 0
-121 -124 0
-121 -125 0
-121 -126 0
-122 -123 0
-122 -124 0
-122 -125 0
-122 -126 0
-123 -124 0
-123 -125 0
-123 -126 0
-124 -125 0
-124 -126 0
-125 -126 0
-404 381 113 0
-405 382 114 0
-406 383 115 0
-407 384 116 0
-408 385 117 0
-409 386 118 0
-410 387 0
-411 388 119 0
-412 389 120 0
-413 390 121 0
-414 391 0
-415 392 122 0
-416 393 0
-417 394 0
-418 395 123 0
-419 396 124 0
-420 397 0
-421 398 125 0
-422 399 0
-423 400 0
-424 401 0
-425 402 126 0
-426 403 0
-127 -128 0
-127 -129 0
-127 -130 0
-127 -131 0
-127 -132 0
-127 -133 0
-127 -134 0
-127 -135 0
-127 -136 0
-127 -137 0
-127 -138 0
-127 -139 0
-127 -140 0
-128 -129 0
-128 -130 0
-128 -131 0
-128 -132 0
-128 -133 0
-128 -134 0
-128 -135 0
-128 -136 0
-128 -137 0
-128 -138 0
-128 -139 0
-128 -140 0
-129 -130 0
-129 -131 0
-129 -132 0
-129 -133 0
-129 -134 0
-129 -135 0
-129 -136 0
-129 -137 0
-129 -138 0
-129 -139 0
-129 -140 0
-130 -131 0
-130 -132 0
-130 -133 0
-130 -134 0
-130 -135 0
-130 -136 0
-130 -137 0
-130 -138 0
-130 -139 0
-130 -140 0
-131 -132 0
-131 -133 0
-131 -134 0
-131 -135 0
-131 -136 0
-131 -137 0
-131 -138 0
-131 -139 0
-131 -140 0
-132 -133 0
-132 -134 0
-132 -135 0
-132 -136 0
-132 -137 0
-132 -138 0
-132 -139 0
-132 -140 0
-133 -134 0
-133 -135 0
-133 -136 0
-133 -137 0
-133 -138 0
-133 -139 0
-133 -140 0
-134 -135 0
-134 -136 0
-134 -137 0
-134 -138 0
-134 -139 0
-134 -140 0
-135 -136 0
-135 -137 0
-135 -138 0
-135 -139 0
-135 -140 0
-136 -137 0
-136 -138 0
-136 -139 0
-136 -140 0
-137 -138 0
-137 -139 0
-137 -140 0
-138 -139 0
-138 -140 0
-139 -140 0
-427 404 127 0
-428 405 128 0
-429 406 129 0
-430 407 130 0
-431 408 131 0
-432 409 132 0
-433 410 0
-434 411 133 0
-435 412 134 0
-436 413 135 0
-437 414 0
-438 415 136 0
-439 416 0
-440 417 0
-441 418 137 0
-442 419 138 0
-443 420 0
-444 421 139 0
-445 422 0
-446 423 0
-447 424 0
-448 425 140 0
-449 426 0
-141 -142 0
-141 -143 0
-141 -144 0
-141 -145 0
-141 -146 0
-141 -147 0
-141 -148 0
-141 -149 0
-141 -150 0
-141 -151 0
-141 -152 0
-141 -153 0
-141 -154 0
-142 -143 0
-142 -144 0
-142 -145 0
-142 -146 0
-142 -147 0
-142 -148 0
-142 -149 0
-142 -150 0
-142 -151 0
-142 -152 0
-142 -153 0
-142 -154 0
-143 -144 0
-143 -145 0
-143 -146 0
-143 -147 0
-143 -148 0
-143 -149 0
-143 -150 0
-143 -151 0
-143 -152 0
-143 -153 0
-143 -154 0
-144 -145 0
-144 -146 0
-144 -147 0
-144 -148 0
-144 -149 0
-144 -150 0
-144 -151 0
-144 -152 0
-144 -153 0
-144 -154 0
-145 -146 0
-145 -147 0
-145 -148 0
-145 -149 0
-145 -150 0
-145 -151 0
-145 -152 0
-145 -153 0
-145 -154 0
-146 -147 0
-146 -148 0
-146 -149 0
-146 -150 0
-146 -151 0
-146 -152 0
-146 -153 0
-146 -154 0
-147 -148 0
-147 -149 0
-147 -150 0
-147 -151 0
-147 -152 0
-147 -153 0
-147 -154 0
-148 -149 0
-148 -150 0
-148 -151 0
-148 -152 0
-148 -153 0
-148 -154 0
-149 -150 0
-149 -151 0
-149 -152 0
-149 -153 0
-149 -154 0
-150 -151 0
-150 -152 0
-150 -153 0
-150 -154 0
-151 -152 0
-151 -153 0
-151 -154 0
-152 -153 0
-152 -154 0
-153 -154 0
-450 427 141 0
-451 428 142 0
-452 429 143 0
-453 430 144 0
-454 431 145 0
-455 432 146 0
-456 433 0
-457 434 147 0
-458 435 148 0
-459 436 149 0
-460 437 0
-461 438 150 0
-462 439 0
-463 440 0
-464 441 151 0
-465 442 152 0
-466 443 0
-467 444 153 0
-468 445 0
-469 446 0
-470 447 0
-471 448 154 0
-472 449 0
-155 -156 0
-155 -157 0
-155 -158 0
-155 -159 0
-155 -160 0
-155 -161 0
-155 -162 0
-155 -163 0
-155 -164 0
-155 -165 0
-155 -166 0
-155 -167 0
-155 -168 0
-156 -157 0
-156 -158 0
-156 -159 0
-156 -160 0
-156 -161 0
-156 -162 0
-156 -163 0
-156 -164 0
-156 -165 0
-156 -166 0
-156 -167 0
-156 -168 0
-157 -158 0
-157 -159 0
-157 -160 0
-157 -161 0
-157 -162 0
-157 -163 0
-157 -164 0
-157 -165 0
-157 -166 0
-157 -167 0
-157 -168 0
-158 -159 0
-158 -160 0
-158 -161 0
-158 -162 0
-158 -163 0
-158 -164 0
-158 -165 0
-158 -166 0
-158 -167 0
-158 -168 0
-159 -160 0
-159 -161 0
-159 -162 0
-159 -163 0
-159 -164 0
-159 -165 0
-159 -166 0
-159 -167 0
-159 -168 0
-160 -161 0
-160 -162 0
-160 -163 0
-160 -164 0
-160 -165 0
-160 -166 0
-160 -167 0
-160 -168 0
-161 -162 0
-161 -163 0
-161 -164 0
-161 -165 0
-161 -166 0
-161 -167 0
-161 -168 0
-162 -163 0
-162 -164 0
-162 -165 0
-162 -166 0
-162 -167 0
-162 -168 0
-163 -164 0
-163 -165 0
-163 -166 0
-163 -167 0
-163 -168 0
-164 -165 0
-164 -166 0
-164 -167 0
-164 -168 0
-165 -166 0
-165 -167 0
-165 -168 0
-166 -167 0
-166 -168 0
-167 -168 0
-473 450 155 0
-474 451 156 0
-475 452 157 0
-476 453 158 0
-477 454 159 0
-478 455 160 0
-479 456 0
-480 457 161 0
-481 458 162 0
-482 459 163 0
-483 460 0
-484 461 164 0
-485 462 0
-486 463 0
-487 464 165 0
-488 465 166 0
-489 466 0
-490 467 167 0
-491 468 0
-492 469 0
-493 470 0
-494 471 168 0
-495 472 0
-169 -170 0
-169 -171 0
-169 -172 0
-169 -173 0
-169 -174 0
-169 -175 0
-169 -176 0
-169 -177 0
-169 -178 0
-169 -179 0
-169 -180 0
-169 -181 0
-169 -182 0
-170 -171 0
-170 -172 0
-170 -173 0
-170 -174 0
-170 -175 0
-170 -176 0
-170 -177 0
-170 -178 0
-170 -179 0
-170 -180 0
-170 -181 0
-170 -182 0
-171 -172 0
-171 -173 0
-171 -174 0
-171 -175 0
-171 -176 0
-171 -177 0
-171 -178 0
-171 -179 0
-171 -180 0
-171 -181 0
-171 -182 0
-172 -173 0
-172 -174 0
-172 -175 0
-172 -176 0
-172 -177 0
-172 -178 0
-172 -179 0
-172 -180 0
-172 -181 0
-172 -182 0
-173 -174 0
-173 -175 0
-173 -176 0
-173 -177 0
-173 -178 0
-173 -179 0
-173 -180 0
-173 -181 0
-173 -182 0
-174 -175 0
-174 -176 0
-174 -177 0
-174 -178 0
-174 -179 0
-174 -180 0
-174 -181 0
-174 -182 0
-175 -176 0
-175 -177 0
-175 -178 0
-175 -179 0
-175 -180 0
-175 -181 0
-175 -182 0
-176 -177 0
-176 -178 0
-176 -179 0
-176 -180 0
-176 -181 0
-176 -182 0
-177 -178 0
-177 -179 0
-177 -180 0
-177 -181 0
-177 -182 0
-178 -179 0
-178 -180 0
-178 -181 0
-178 -182 0
-179 -180 0
-179 -181 0
-179 -182 0
-180 -181 0
-180 -182 0
-181 -182 0
-496 473 169 0
-497 474 170 0
-498 475 171 0
-499 476 172 0
-500 477 173 0
-501 478 174 0
-502 479 0
-503 480 175 0
-504 481 176 0
-505 482 177 0
-506 483 0
-507 484 178 0
-508 485 0
-509 486 0
-510 487 179 0
-511 488 180 0
-512 489 0
-513 490 181 0
-514 491 0
-515 492 0
-516 493 0
-517 494 182 0
-518 495 0
-183 -184 0
-183 -185 0
-183 -186 0
-183 -187 0
-183 -188 0
-183 -189 0
-183 -190 0
-183 -191 0
-183 -192 0
-183 -193 0
-183 -194 0
-183 -195 0
-183 -196 0
-184 -185 0
-184 -186 0
-184 -187 0
-184 -188 0
-184 -189 0
-184 -190 0
-184 -191 0
-184 -192 0
-184 -193 0
-184 -194 0
-184 -195 0
-184 -196 0
-185 -186 0
-185 -187 0
-185 -188 0
-185 -189 0
-185 -190 0
-185 -191 0
-185 -192 0
-185 -193 0
-185 -194 0
-185 -195 0
-185 -196 0
-186 -187 0
-186 -188 0
-186 -189 0
-186 -190 0
-186 -191 0
-186 -192 0
-186 -193 0
-186 -194 0
-186 -195 0
-186 -196 0
-187 -188 0
-187 -189 0
-187 -190 0
-187 -191 0
-187 -192 0
-187 -193 0
-187 -194 0
-187 -195 0
-187 -196 0
-188 -189 0
-188 -190 0
-188 -191 0
-188 -192 0
-188 -193 0
-188 -194 0
-188 -195 0
-188 -196 0
-189 -190 0
-189 -191 0
-189 -192 0
-189 -193 0
-189 -194 0
-189 -195 0
-189 -196 0
-190 -191 0
-190 -192 0
-190 -193 0
-190 -194 0
-190 -195 0
-190 -196 0
-191 -192 0
-191 -193 0
-191 -194 0
-191 -195 0
-191 -196 0
-192 -193 0
-192 -194 0
-192 -195 0
-192 -196 0
-193 -194 0
-193 -195 0
-193 -196 0
-194 -195 0
-194 -196 0
-195 -196 0
-519 496 183 0
-520 497 184 0
-521 498 185 0
-522 499 186 0
-523 500 187 0
-524 501 188 0
-525 502 0
-526 503 189 0
-527 504 190 0
-528 505 191 0
-529 506 0
-530 507 192 0
-531 508 0
-532 509 0
-533 510 193 0
-534 511 194 0
-535 512 0
-536 513 195 0
-537 514 0
-538 515 0
-539 516 0
-540 517 196 0
-541 518 0
-197 0
-198 0
-199 0
-200 0
-201 0
-202 0
203 0
-204 0
-205 0
-206 0
207 0
-208 0
209 0
210 0
-211 0
-212 0
213 0
-214 0
215 0
216 0
217 0
-218 0
219 0
1 15 29 43 57 71 85 99 113 127 141 155 169 183 0
2 16 30 44 58 72 86 100 114 128 142 156 170 184 0
3 17 31 45 59 73 87 101 115 129 143 157 171 185 0
4 18 32 46 60 74 88 102 116 130 144 158 172 186 0
5 19 33 47 61 75 89 103 117 131 145 159 173 187 0
6 20 34 48 62 76 90 104 118 132 146 160 174 188 0
7 21 35 49 63 77 91 105 119 133 147 161 175 189 0
8 22 36 50 64 78 92 106 120 134 148 162 176 190 0
9 23 37 51 65 79 93 107 121 135 149 163 177 191 0
10 24 38 52 66 80 94 108 122 136 150 164 178 192 0
11 25 39 53 67 81 95 109 123 137 151 165 179 193 0
12 26 40 54 68 82 96 110 124 138 152 166 180 194 0
13 27 41 55 69 83 97 111 125 139 153 167 181 195 0
14 28 42 56 70 84 98 112 126 140 154 168 182 196 0
-542 198 0
-542 215 0
-543 198 0
-543 215 0
-1 542 543 0
-544 197 0
-544 215 0
-545 197 0
-545 215 0
-546 199 0
-546 210 0
-547 199 0
-547 210 0
-548 202 0
-548 209 0
-549 202 0
-549 209 0
-2 544 545 546 547 548 549 0
-550 198 0
-550 210 0
-551 198 0
-551 210 0
-552 200 0
-552 216 0
-553 200 0
-553 216 0
-554 203 0
-554 209 0
-555 203 0
-555 209 0
-3 550 551 552 553 554 555 0
-556 199 0
-556 216 0
-557 199 0
-557 216 0
-558 201 0
-558 219 0
-559 201 0
-559 219 0
-4 556 557 558 559 0
-560 200 0
-560 219 0
-561 200 0
-561 219 0
-5 560 561 0
-562 198 0
-562 209 0
-563 198 0
-563 209 0
-564 203 0
-564 210 0
-565 203 0
-565 210 0
-566 204 0
-566 207 0
-567 204 0
-567 207 0
-6 562 563 564 565 566 567 0
-568 202 0
-568 207 0
-569 202 0
-569 207 0
-570 205 0
-570 213 0
-571 205 0
-571 213 0
-7 568 569 570 571 0
-572 204 0
-572 213 0
-573 204 0
-573 213 0
-8 572 573 0
-9 0
-574 207 0
-574 212 0
-575 207 0
-575 212 0
-10 574 575 0
-576 212 0
-576 219 0
-577 212 0
-577 219 0
-578 213 0
-578 217 0
-579 213 0
-579 217 0
-11 576 577 578 579 0
-580 207 0
-580 208 0
-581 207 0
-581 208 0
-582 211 0
-582 219 0
-583 211 0
-583 219 0
-584 213 0
-584 218 0
-585 213 0
-585 218 0
-586 214 0
-586 215 0
-587 214 0
-587 215 0
-12 580 581 582 583 584 585 586 587 0
-588 212 0
-588 215 0
-589 212 0
-589 215 0
-13 588 589 0
-590 212 0
-590 213 0
-591 212 0
-591 213 0
-592 217 0
-592 219 0
-593 217 0
-593 219 0
-14 590 591 592 593 0
-594 221 0
-594 238 0
-595 221 0
-595 238 0
-15 594 595 0
-596 220 0
-596 238 0
-597 220 0
-597 238 0
-598 222 0
-598 233 0
-599 222 0
-599 233 0
-600 225 0
-600 232 0
-601 225 0
-601 232 0
-16 596 597 598 599 600 601 0
-602 221 0
-602 233 0
-603 221 0
-603 233 0
-604 223 0
-604 239 0
-605 223 0
-605 239 0
-606 226 0
-606 232 0
-607 226 0
-607 232 0
-17 602 603 604 605 606 607 0
-608 222 0
-608 239 0
-609 222 0
-609 239 0
-610 224 0
-610 242 0
-611 224 0
-611 242 0
-18 608 609 610 611 0
-612 223 0
-612 242 0
-613 223 0
-613 242 0
-19 612 613 0
-614 221 0
-614 232 0
-615 221 0
-615 232 0
-616 226 0
-616 233 0
-617 226 0
-617 233 0
-618 227 0
-618 230 0
-619 227 0
-619 230 0
-20 614 615 616 617 618 619 0
-620 225 0
-620 230 0
-621 225 0
-621 230 0
-622 228 0
-622 236 0
-623 228 0
-623 236 0
-21 620 621 622 623 0
-624 227 0
-624 236 0
-625 227 0
-625 236 0
-22 624 625 0
-23 0
-626 230 0
-626 235 0
-627 230 0
-627 235 0
-24 626 627 0
-628 235 0
-628 242 0
-629 235 0
-629 242 0
-630 236 0
-630 240 0
-631 236 0
-631 240 0
-25 628 629 630 631 0
-632 230 0
-632 231 0
-633 230 0
-633 231 0
-634 234 0
-634 242 0
-635 234 0
-635 242 0
-636 236 0
-636 241 0
-637 236 0
-637 241 0
-638 237 0
-638 238 0
-639 237 0
-639 238 0
-26 632 633 634 635 636 637 638 639 0
-640 235 0
-640 238 0
-641 235 0
-641 238 0
-27 640 641 0
-642 235 0
-642 236 0
-643 235 0
-643 236 0
-644 240 0
-644 242 0
-645 240 0
-645 242 0
-28 642 643 644 645 0
-646 244 0
-646 261 0
-647 244 0
-647 261 0
-29 646 647 0
-648 243 0
-648 261 0
-649 243 0
-649 261 0
-650 245 0
-650 256 0
-651 245 0
-651 256 0
-652 248 0
-652 255 0
-653 248 0
-653 255 0
-30 648 649 650 651 652 653 0
-654 244 0
-654 256 0
-655 244 0
-655 256 0
-656 246 0
-656 262 0
-657 246 0
-657 262 0
-658 249 0
-658 255 0
-659 249 0
-659 255 0
-31 654 655 656 657 658 659 0
-660 245 0
-660 262 0
-661 245 0
-661 262 0
-662 247 0
-662 265 0
-663 247 0
-663 265 0
-32 660 661 662 663 0
-664 246 0
-664 265 0
-665 246 0
-665 265 0
-33 664 665 0
-666 244 0
-666 255 0
-667 244 0
-667 255 0
-668 249 0
-668 256 0
-669 249 0
-669 256 0
-670 250 0
-670 253 0
-671 250 0
-671 253 0
-34 666 667 668 669 670 671 0
-672 248 0
-672 253 0
-673 248 0
-673 253 0
-674 251 0
-674 259 0
-675 251 0
-675 259 0
-35 672 673 674 675 0
-676 250 0
-676 259 0
-677 250 0
-677 259 0
-36 676 677 0
-37 0
-678 253 0
-678 258 0
-679 253 0
-679 258 0
-38 678 679 0
-680 258 0
-680 265 0
-681 258 0
-681 265 0
-682 259 0
-682 263 0
-683 259 0
-683 263 0
-39 680 681 682 683 0
-684 253 0
-684 254 0
-685 253 0
-685 254 0
-686 257 0
-686 265 0
-687 257 0
-687 265 0
-688 259 0
-688 264 0
-689 259 0
-689 264 0
-690 260 0
-690 261 0
-691 260 0
-691 261 0
-40 684 685 686 687 688 689 690 691 0
-692 258 0
-692 261 0
-693 258 0
-693 261 0
-41 692 693 0
-694 258 0
-694 259 0
-695 258 0
-695 259 0
-696 263 0
-696 265 0
-697 263 0
-697 265 0
-42 694 695 696 697 0
-698 267 0
-698 284 0
-699 267 0
-699 284 0
-43 698 699 0
-700 266 0
-700 284 0
-701 266 0
-701 284 0
-702 268 0
-702 279 0
-703 268 0
-703 279 0
-704 271 0
-704 278 0
-705 271 0
-705 278 0
-44 700 701 702 703 704 705 0
-706 267 0
-706 279 0
-707 267 0
-707 279 0
-708 269 0
-708 285 0
-709 269 0
-709 285 0
-710 272 0
-710 278 0
-711 272 0
-711 278 0
-45 706 707 708 709 710 711 0
-712 268 0
-712 285 0
-713 268 0
-713 285 0
-714 270 0
-714 288 0
-715 270 0
-715 288 0
-46 712 713 714 715 0
-716 269 0
-716 288 0
-717 269 0
-717 288 0
-47 716 717 0
-718 267 0
-718 278 0
-719 267 0
-719 278 0
-720 272 0
-720 279 0
-721 272 0
-721 279 0
-722 273 0
-722 276 0
-723 273 0
-723 276 0
-48 718 719 720 721 722 723 0
-724 271 0
-724 276 0
-725 271 0
-725 276 0
-726 274 0
-726 282 0
-727 274 0
-727 282 0
-49 724 725 726 727 0
-728 273 0
-728 282 0
-729 273 0
-729 282 0
-50 728 729 0
-51 0
-730 276 0
-730 281 0
-731 276 0
-731 281 0
-52 730 731 0
-732 281 0
-732 288 0
-733 281 0
-733 288 0
-734 282 0
-734 286 0
-735 282 0
-735 286 0
-53 732 733 734 735 0
-736 276 0
-736 277 0
-737 276 0
-737 277 0
-738 280 0
-738 288 0
-739 280 0
-739 288 0
-740 282 0
-740 287 0
-741 282 0
-741 287 0
-742 283 0
-742 284 0
-743 283 0
-743 284 0
-54 736 737 738 739 740 741 742 743 0
-744 281 0
-744 284 0
-745 281 0
-745 284 0
-55 744 745 0
-746 281 0
-746 282 0
-747 281 0
-747 282 0
-748 286 0
-748 288 0
-749 286 0
-749 288 0
-56 746 747 748 749 0
-750 290 0
-750 307 0
-751 290 0
-751 307 0
-57 750 751 0
-752 289 0
-752 307 0
-753 289 0
-753 307 0
-754 291 0
-754 302 0
-755 291 0
-755 302 0
-756 294 0
-756 301 0
-757 294 0
-757 301 0
-58 752 753 754 755 756 757 0
-758 290 0
-758 302 0
-759 290 0
-759 302 0
-760 292 0
-760 308 0
-761 292 0
-761 308 0
-762 295 0
-762 301 0
-763 295 0
-763 301 0
-59 758 759 760 761 762 763 0
-764 291 0
-764 308 0
-765 291 0
-765 308 0
-766 293 0
-766 311 0
-767 293 0
-767 311 0
-60 764 765 766 767 0
-768 292 0
-768 311 0
-769 292 0
-769 311 0
-61 768 769 0
-770 290 0
-770 301 0
-771 290 0
-771 301 0
-772 295 0
-772 302 0
-773 295 0
-773 302 0
-774 296 0
-774 299 0
-775 296 0
-775 299 0
-62 770 771 772 773 774 775 0
-776 294 0
-776 299 0
-777 294 0
-777 299 0
-778 297 0
-778 305 0
-779 297 0
-779 305 0
-63 776 777 778 779 0
-780 296 0
-780 305 0
-781 296 0
-781 305 0
-64 780 781 0
-65 0
-782 299 0
-782 304 0
-783 299 0
-783 304 0
-66 782 783 0
-784 304 0
-784 311 0
-785 304 0
-785 311 0
-786 305 0
-786 309 0
-787 305 0
-787 309 0
-67 784 785 786 787 0
-788 299 0
-788 300 0
-789 299 0
-789 300 0
-790 303 0
-790 311 0
-791 303 0
-791 311 0
-792 305 0
-792 310 0
-793 305 0
-793 310 0
-794 306 0
-794 307 0
-795 306 0
-795 307 0
-68 788 789 790 791 792 793 794 795 0
-796 304 0
-796 307 0
-797 304 0
-797 307 0
-69 796 797 0
-798 304 0
-798 305 0
-799 304 0
-799 305 0
-800 309 0
-800 311 0
-801 309 0
-801 311 0
-70 798 799 800 801 0
-802 313 0
-802 330 0
-803 313 0
-803 330 0
-71 802 803 0
-804 312 0
-804 330 0
-805 312 0
-805 330 0
-806 314 0
-806 325 0
-807 314 0
-807 325 0
-808 317 0
-808 324 0
-809 317 0
-809 324 0
-72 804 805 806 807 808 809 0
-810 313 0
-810 325 0
-811 313 0
-811 325 0
-812 315 0
-812 331 0
-813 315 0
-813 331 0
-814 318 0
-814 324 0
-815 318 0
-815 324 0
-73 810 811 812 813 814 815 0
-816 314 0
-816 331 0
-817 314 0
-817 331 0
-818 316 0
-818 334 0
-819 316 0
-819 334 0
-74 816 817 818 819 0
-820 315 0
-820 334 0
-821 315 0
-821 334 0
-75 820 821 0
-822 313 0
-822 324 0
-823 313 0
-823 324 0
-824 318 0
-824 325 0
-825 318 0
-825 325 0
-826 319 0
-826 322 0
-827 319 0
-827 322 0
-76 822 823 824 825 826 827 0
-828 317 0
-828 322 0
-829 317 0
-829 322 0
-830 320 0
-830 328 0
-831 320 0
-831 328 0
-77 828 829 830 831 0
-832 319 0
-832 328 0
-833 319 0
-833 328 0
-78 832 833 0
-79 0
-834 322 0
-834 327 0
-835 322 0
-835 327 0
-80 834 835 0
-836 327 0
-836 334 0
-837 327 0
-837 334 0
-838 328 0
-838 332 0
-839 328 0
-839 332 0
-81 836 837 838 839 0
-840 322 0
-840 323 0
-841 322 0
-841 323 0
-842 326 0
-842 334 0
-843 326 0
-843 334 0
-844 328 0
-844 333 0
-845 328 0
-845 333 0
-846 329 0
-846 330 0
-847 329 0
-847 330 0
-82 840 841 842 843 844 845 846 847 0
-848 327 0
-848 330 0
-849 327 0
-849 330 0
-83 848 849 0
-850 327 0
-850 328 0
-851 327 0
-851 328 0
-852 332 0
-852 334 0
-853 332 0
-853 334 0
-84 850 851 852 853 0
-854 336 0
-854 353 0
-855 336 0
-855 353 0
-85 854 855 0
-856 335 0
-856 353 0
-857 335 0
-857 353 0
-858 337 0
-858 348 0
-859 337 0
-859 348 0
-860 340 0
-860 347 0
-861 340 0
-861 347 0
-86 856 857 858 859 860 861 0
-862 336 0
-862 348 0
-863 336 0
-863 348 0
-864 338 0
-864 354 0
-865 338 0
-865 354 0
-866 341 0
-866 347 0
-867 341 0
-867 347 0
-87 862 863 864 865 866 867 0
-868 337 0
-868 354 0
-869 337 0
-869 354 0
-870 339 0
-870 357 0
-871 339 0
-871 357 0
-88 868 869 870 871 0
-872 338 0
-872 357 0
-873 338 0
-873 357 0
-89 872 873 0
-874 336 0
-874 347 0
-875 336 0
-875 347 0
-876 341 0
-876 348 0
-877 341 0
-877 348 0
-878 342 0
-878 345 0
-879 342 0
-879 345 0
-90 874 875 876 877 878 879 0
-880 340 0
-880 345 0
-881 340 0
-881 345 0
-882 343 0
-882 351 0
-883 343 0
-883 351 0
-91 880 881 882 883 0
-884 342 0
-884 351 0
-885 342 0
-885 351 0
-92 884 885 0
-93 0
-886 345 0
-886 350 0
-887 345 0
-887 350 0
-94 886 887 0
-888 350 0
-888 357 0
-889 350 0
-889 357 0
-890 351 0
-890 355 0
-891 351 0
-891 355 0
-95 888 889 890 891 0
-892 345 0
-892 346 0
-893 345 0
-893 346 0
-894 349 0
-894 357 0
-895 349 0
-895 357 0
-896 351 0
-896 356 0
-897 351 0
-897 356 0
-898 352 0
-898 353 0
-899 352 0
-899 353 0
-96 892 893 894 895 896 897 898 899 0
-900 350 0
-900 353 0
-901 350 0
-901 353 0
-97 900 901 0
-902 350 0
-902 351 0
-903 350 0
-903 351 0
-904 355 0
-904 357 0
-905 355 0
-905 357 0
-98 902 903 904 905 0
-906 359 0
-906 376 0
-907 359 0
-907 376 0
-99 906 907 0
-908 358 0
-908 376 0
-909 358 0
-909 376 0
-910 360 0
-910 371 0
-911 360 0
-911 371 0
-912 363 0
-912 370 0
-913 363 0
-913 370 0
-100 908 909 910 911 912 913 0
-914 359 0
-914 371 0
-915 359 0
-915 371 0
-916 361 0
-916 377 0
-917 361 0
-917 377 0
-918 364 0
-918 370 0
-919 364 0
-919 370 0
-101 914 915 916 917 918 919 0
-920 360 0
-920 377 0
-921 360 0
-921 377 0
-922 362 0
-922 380 0
-923 362 0
-923 380 0
-102 920 921 922 923 0
-924 361 0
-924 380 0
-925 361 0
-925 380 0
-103 924 925 0
-926 359 0
-926 370 0
-927 359 0
-927 370 0
-928 364 0
-928 371 0
-929 364 0
-929 371 0
-930 365 0
-930 368 0
-931 365 0
-931 368 0
-104 926 927 928 929 930 931 0
-932 363 0
-932 368 0
-933 363 0
-933 368 0
-934 366 0
-934 374 0
-935 366 0
-935 374 0
-105 932 933 934 935 0
-936 365 0
-936 374 0
-937 365 0
-937 374 0
-106 936 937 0
-107 0
-938 368 0
-938 373 0
-939 368 0
-939 373 0
-108 938 939 0
-940 373 0
-940 380 0
-941 373 0
-941 380 0
-942 374 0
-942 378 0
-943 374 0
-943 378 0
-109 940 941 942 943 0
-944 368 0
-944 369 0
-945 368 0
-945 369 0
-946 372 0
-946 380 0
-947 372 0
-947 380 0
-948 374 0
-948 379 0
-949 374 0
-949 379 0
-950 375 0
-950 376 0
-951 375 0
-951 376 0
-110 944 945 946 947 948 949 950 951 0
-952 373 0
-952 376 0
-953 373 0
-953 376 0
-111 952 953 0
-954 373 0
-954 374 0
-955 373 0
-955 374 0
-956 378 0
-956 380 0
-957 378 0
-957 380 0
-112 954 955 956 957 0
-958 382 0
-958 399 0
-959 382 0
-959 399 0
-113 958 959 0
-960 381 0
-960 399 0
-961 381 0
-961 399 0
-962 383 0
-962 394 0
-963 383 0
-963 394 0
-964 386 0
-964 393 0
-965 386 0
-965 393 0
-114 960 961 962 963 964 965 0
-966 382 0
-966 394 0
-967 382 0
-967 394 0
-968 384 0
-968 400 0
-969 384 0
-969 400 0
-970 387 0
-970 393 0
-971 387 0
-971 393 0
-115 966 967 968 969 970 971 0
-972 383 0
-972 400 0
-973 383 0
-973 400 0
-974 385 0
-974 403 0
-975 385 0
-975 403 0
-116 972 973 974 975 0
-976 384 0
-976 403 0
-977 384 0
-977 403 0
-117 976 977 0
-978 382 0
-978 393 0
-979 382 0
-979 393 0
-980 387 0
-980 394 0
-981 387 0
-981 394 0
-982 388 0
-982 391 0
-983 388 0
-983 391 0
-118 978 979 980 981 982 983 0
-984 386 0
-984 391 0
-985 386 0
-985 391 0
-986 389 0
-986 397 0
-987 389 0
-987 397 0
-119 984 985 986 987 0
-988 388 0
-988 397 0
-989 388 0
-989 397 0
-120 988 989 0
-121 0
-990 391 0
-990 396 0
-991 391 0
-991 396 0
-122 990 991 0
-992 396 0
-992 403 0
-993 396 0
-993 403 0
-994 397 0
-994 401 0
-995 397 0
-995 401 0
-123 992 993 994 995 0
-996 391 0
-996 392 0
-997 391 0
-997 392 0
-998 395 0
-998 403 0
-999 395 0
-999 403 0
-1000 397 0
-1000 402 0
-1001 397 0
-1001 402 0
-1002 398 0
-1002 399 0
-1003 398 0
-1003 399 0
-124 996 997 998 999 1000 1001 1002 1003 0
-1004 396 0
-1004 399 0
-1005 396 0
-1005 399 0
-125 1004 1005 0
-1006 396 0
-1006 397 0
-1007 396 0
-1007 397 0
-1008 401 0
-1008 403 0
-1009 401 0
-1009 403 0
-126 1006 1007 1008 1009 0
-1010 405 0
-1010 422 0
-1011 405 0
-1011 422 0
-127 1010 1011 0
-1012 404 0
-1012 422 0
-1013 404 0
-1013 422 0
-1014 406 0
-1014 417 0
-1015 406 0
-1015 417 0
-1016 409 0
-1016 416 0
-1017 409 0
-1017 416 0
-128 1012 1013 1014 1015 1016 1017 0
-1018 405 0
-1018 417 0
-1019 405 0
-1019 417 0
-1020 407 0
-1020 423 0
-1021 407 0
-1021 423 0
-1022 410 0
-1022 416 0
-1023 410 0
-1023 416 0
-129 1018 1019 1020 1021 1022 1023 0
-1024 406 0
-1024 423 0
-1025 406 0
-1025 423 0
-1026 408 0
-1026 426 0
-1027 408 0
-1027 426 0
-130 1024 1025 1026 1027 0
-1028 407 0
-1028 426 0
-1029 407 0
-1029 426 0
-131 1028 1029 0
-1030 405 0
-1030 416 0
-1031 405 0
-1031 416 0
-1032 410 0
-1032 417 0
-1033 410 0
-1033 417 0
-1034 411 0
-1034 414 0
-1035 411 0
-1035 414 0
-132 1030 1031 1032 1033 1034 1035 0
-1036 409 0
-1036 414 0
-1037 409 0
-1037 414 0
-1038 412 0
-1038 420 0
-1039 412 0
-1039 420 0
-133 1036 1037 1038 1039 0
-1040 411 0
-1040 420 0
-1041 411 0
-1041 420 0
-134 1040 1041 0
-135 0
-1042 414 0
-1042 419 0
-1043 414 0
-1043 419 0
-136 1042 1043 0
-1044 419 0
-1044 426 0
-1045 419 0
-1045 426 0
-1046 420 0
-1046 424 0
-1047 420 0
-1047 424 0
-137 1044 1045 1046 1047 0
-1048 414 0
-1048 415 0
-1049 414 0
-1049 415 0
-1050 418 0
-1050 426 0
-1051 418 0
-1051 426 0
-1052 420 0
-1052 425 0
-1053 420 0
-1053 425 0
-1054 421 0
-1054 422 0
-1055 421 0
-1055 422 0
-138 1048 1049 1050 1051 1052 1053 1054 1055 0
-1056 419 0
-1056 422 0
-1057 419 0
-1057 422 0
-139 1056 1057 0
-1058 419 0
-1058 420 0
-1059 419 0
-1059 420 0
-1060 424 0
-1060 426 0
-1061 424 0
-1061 426 0
-140 1058 1059 1060 1061 0
-1062 428 0
-1062 445 0
-1063 428 0
-1063 445 0
-141 1062 1063 0
-1064 427 0
-1064 445 0
-1065 427 0
-1065 445 0
-1066 429 0
-1066 440 0
-1067 429 0
-1067 440 0
-1068 432 0
-1068 439 0
-1069 432 0
-1069 439 0
-142 1064 1065 1066 1067 1068 1069 0
-1070 428 0
-1070 440 0
-1071 428 0
-1071 440 0
-1072 430 0
-1072 446 0
-1073 430 0
-1073 446 0
-1074 433 0
-1074 439 0
-1075 433 0
-1075 439 0
-143 1070 1071 1072 1073 1074 1075 0
-1076 429 0
-1076 446 0
-1077 429 0
-1077 446 0
-1078 431 0
-1078 449 0
-1079 431 0
-1079 449 0
-144 1076 1077 1078 1079 0
-1080 430 0
-1080 449 0
-1081 430 0
-1081 449 0
-145 1080 1081 0
-1082 428 0
-1082 439 0
-1083 428 0
-1083 439 0
-1084 433 0
-1084 440 0
-1085 433 0
-1085 440 0
-1086 434 0
-1086 437 0
-1087 434 0
-1087 437 0
-146 1082 1083 1084 1085 1086 1087 0
-1088 432 0
-1088 437 0
-1089 432 0
-1089 437 0
-1090 435 0
-1090 443 0
-1091 435 0
-1091 443 0
-147 1088 1089 1090 1091 0
-1092 434 0
-1092 443 0
-1093 434 0
-1093 443 0
-148 1092 1093 0
-149 0
-1094 437 0
-1094 442 0
-1095 437 0
-1095 442 0
-150 1094 1095 0
-1096 442 0
-1096 449 0
-1097 442 0
-1097 449 0
-1098 443 0
-1098 447 0
-1099 443 0
-1099 447 0
-151 1096 1097 1098 1099 0
-1100 437 0
-1100 438 0
-1101 437 0
-1101 438 0
-1102 441 0
-1102 449 0
-1103 441 0
-1103 449 0
-1104 443 0
-1104 448 0
-1105 443 0
-1105 448 0
-1106 444 0
-1106 445 0
-1107 444 0
-1107 445 0
-152 1100 1101 1102 1103 1104 1105 1106 1107 0
-1108 442 0
-1108 445 0
-1109 442 0
-1109 445 0
-153 1108 1109 0
-1110 442 0
-1110 443 0
-1111 442 0
-1111 443 0
-1112 447 0
-1112 449 0
-1113 447 0
-1113 449 0
-154 1110 1111 1112 1113 0
-1114 451 0
-1114 468 0
-1115 451 0
-1115 468 0
-155 1114 1115 0
-1116 450 0
-1116 468 0
-1117 450 0
-1117 468 0
-1118 452 0
-1118 463 0
-1119 452 0
-1119 463 0
-1120 455 0
-1120 462 0
-1121 455 0
-1121 462 0
-156 1116 1117 1118 1119 1120 1121 0
-1122 451 0
-1122 463 0
-1123 451 0
-1123 463 0
-1124 453 0
-1124 469 0
-1125 453 0
-1125 469 0
-1126 456 0
-1126 462 0
-1127 456 0
-1127 462 0
-157 1122 1123 1124 1125 1126 1127 0
-1128 452 0
-1128 469 0
-1129 452 0
-1129 469 0
-1130 454 0
-1130 472 0
-1131 454 0
-1131 472 0
-158 1128 1129 1130 1131 0
-1132 453 0
-1132 472 0
-1133 453 0
-1133 472 0
-159 1132 1133 0
-1134 451 0
-1134 462 0
-1135 451 0
-1135 462 0
-1136 456 0
-1136 463 0
-1137 456 0
-1137 463 0
-1138 457 0
-1138 460 0
-1139 457 0
-1139 460 0
-160 1134 1135 1136 1137 1138 1139 0
-1140 455 0
-1140 460 0
-1141 455 0
-1141 460 0
-1142 458 0
-1142 466 0
-1143 458 0
-1143 466 0
-161 1140 1141 1142 1143 0
-1144 457 0
-1144 466 0
-1145 457 0
-1145 466 0
-162 1144 1145 0
-163 0
-1146 460 0
-1146 465 0
-1147 460 0
-1147 465 0
-164 1146 1147 0
-1148 465 0
-1148 472 0
-1149 465 0
-1149 472 0
-1150 466 0
-1150 470 0
-1151 466 0
-1151 470 0
-165 1148 1149 1150 1151 0
-1152 460 0
-1152 461 0
-1153 460 0
-1153 461 0
-1154 464 0
-1154 472 0
-1155 464 0
-1155 472 0
-1156 466 0
-1156 471 0
-1157 466 0
-1157 471 0
-1158 467 0
-1158 468 0
-1159 467 0
-1159 468 0
-166 1152 1153 1154 1155 1156 1157 1158 1159 0
-1160 465 0
-1160 468 0
-1161 465 0
-1161 468 0
-167 1160 1161 0
-1162 465 0
-1162 466 0
-1163 465 0
-1163 466 0
-1164 470 0
-1164 472 0
-1165 470 0
-1165 472 0
-168 1162 1163 1164 1165 0
-1166 474 0
-1166 491 0
-1167 474 0
-1167 491 0
-169 1166 1167 0
-1168 473 0
-1168 491 0
-1169 473 0
-1169 491 0
-1170 475 0
-1170 486 0
-1171 475 0
-1171 486 0
-1172 478 0
-1172 485 0
-1173 478 0
-1173 485 0
-170 1168 1169 1170 1171 1172 1173 0
-1174 474 0
-1174 486 0
-1175 474 0
-1175 486 0
-1176 476 0
-1176 492 0
-1177 476 0
-1177 492 0
-1178 479 0
-1178 485 0
-1179 479 0
-1179 485 0
-171 1174 1175 1176 1177 1178 1179 0
-1180 475 0
-1180 492 0
-1181 475 0
-1181 492 0
-1182 477 0
-1182 495 0
-1183 477 0
-1183 495 0
-172 1180 1181 1182 1183 0
-1184 476 0
-1184 495 0
-1185 476 0
-1185 495 0
-173 1184 1185 0
-1186 474 0
-1186 485 0
-1187 474 0
-1187 485 0
-1188 479 0
-1188 486 0
-1189 479 0
-1189 486 0
-1190 480 0
-1190 483 0
-1191 480 0
-1191 483 0
-174 1186 1187 1188 1189 1190 1191 0
-1192 478 0
-1192 483 0
-1193 478 0
-1193 483 0
-1194 481 0
-1194 489 0
-1195 481 0
-1195 489 0
-175 1192 1193 1194 1195 0
-1196 480 0
-1196 489 0
-1197 480 0
-1197 489 0
-176 1196 1197 0
-177 0
-1198 483 0
-1198 488 0
-1199 483 0
-1199 488 0
-178 1198 1199 0
-1200 488 0
-1200 495 0
-1201 488 0
-1201 495 0
-1202 489 0
-1202 493 0
-1203 489 0
-1203 493 0
-179 1200 1201 1202 1203 0
-1204 483 0
-1204 484 0
-1205 483 0
-1205 484 0
-1206 487 0
-1206 495 0
-1207 487 0
-1207 495 0
-1208 489 0
-1208 494 0
-1209 489 0
-1209 494 0
-1210 490 0
-1210 491 0
-1211 490 0
-1211 491 0
-180 1204 1205 1206 1207 1208 1209 1210 1211 0
-1212 488 0
-1212 491 0
-1213 488 0
-1213 491 0
-181 1212 1213 0
-1214 488 0
-1214 489 0
-1215 488 0
-1215 489 0
-1216 493 0
-1216 495 0
-1217 493 0
-1217 495 0
-182 1214 1215 1216 1217 0
-1218 497 0
-1218 514 0
-1219 497 0
-1219 514 0
-183 1218 1219 0
-1220 496 0
-1220 514 0
-1221 496 0
-1221 514 0
-1222 498 0
-1222 509 0
-1223 498 0
-1223 509 0
-1224 501 0
-1224 508 0
-1225 501 0
-1225 508 0
-184 1220 1221 1222 1223 1224 1225 0
-1226 497 0
-1226 509 0
-1227 497 0
-1227 509 0
-1228 499 0
-1228 515 0
-1229 499 0
-1229 515 0
-1230 502 0
-1230 508 0
-1231 502 0
-1231 508 0
-185 1226 1227 1228 1229 1230 1231 0
-1232 498 0
-1232 515 0
-1233 498 0
-1233 515 0
-1234 500 0
-1234 518 0
-1235 500 0
-1235 518 0
-186 1232 1233 1234 1235 0
-1236 499 0
-1236 518 0
-1237 499 0
-1237 518 0
-187 1236 1237 0
-1238 497 0
-1238 508 0
-1239 497 0
-1239 508 0
-1240 502 0
-1240 509 0
-1241 502 0
-1241 509 0
-1242 503 0
-1242 506 0
-1243 503 0
-1243 506 0
-188 1238 1239 1240 1241 1242 1243 0
-1244 501 0
-1244 506 0
-1245 501 0
-1245 506 0
-1246 504 0
-1246 512 0
-1247 504 0
-1247 512 0
-189 1244 1245 1246 1247 0
-1248 503 0
-1248 512 0
-1249 503 0
-1249 512 0
-190 1248 1249 0
-191 0
-1250 506 0
-1250 511 0
-1251 506 0
-1251 511 0
-192 1250 1251 0
-1252 511 0
-1252 518 0
-1253 511 0
-1253 518 0
-1254 512 0
-1254 516 0
-1255 512 0
-1255 516 0
-193 1252 1253 1254 1255 0
-1256 506 0
-1256 507 0
-1257 506 0
-1257 507 0
-1258 510 0
-1258 518 0
-1259 510 0
-1259 518 0
-1260 512 0
-1260 517 0
-1261 512 0
-1261 517 0
-1262 513 0
-1262 514 0
-1263 513 0
-1263 514 0
-194 1256 1257 1258 1259 1260 1261 1262 1263 0
-1264 511 0
-1264 514 0
-1265 511 0
-1265 514 0
-195 1264 1265 0
-1266 511 0
-1266 512 0
-1267 511 0
-1267 512 0
-1268 516 0
-1268 518 0
-1269 516 0
-1269 518 0
-196 1266 1267 1268 1269 0
