p cnf 1297 3341
-1 -2 0
-1 -3 0
-1 -4 0
-1 -5 0
-1 -6 0
-1 -7 0
-1 -8 0
-1 -9 0
-1 -10 0
-1 -11 0
-1 -12 0
-1 -13 0
-1 -14 0
-2 -3 0
-2 -4 0
-2 -5 0
-2 -6 0
-2 -7 0
-2 -8 0
-2 -9 0
-2 -10 0
-2 -11 0
-2 -12 0
-2 -13 0
-2 -14 0
-3 -4 0
-3 -5 0
-3 -6 0
-3 -7 0
-3 -8 0
-3 -9 0
-3 -10 0
-3 -11 0
-3 -12 0
-3 -13 0
-3 -14 0
-4 -5 0
-4 -6 0
-4 -7 0
-4 -8 0
-4 -9 0
-4 -10 0
-4 -11 0
-4 -12 0
-4 -13 0
-4 -14 0
-5 -6 0
-5 -7 0
-5 -8 0
-5 -9 0
-5 -10 0
-5 -11 0
-5 -12 0
-5 -13 0
-5 -14 0
-6 -7 0
-6 -8 0
-6 -9 0
-6 -10 0
-6 -11 0
-6 -12 0
-6 -13 0
-6 -14 0
-7 -8 0
-7 -9 0
-7 -10 0
-7 -11 0
-7 -12 0
-7 -13 0
-7 -14 0
-8 -9 0
-8 -10 0
-8 -11 0
-8 -12 0
-8 -13 0
-8 -14 0
-9 -10 0
-9 -11 0
-9 -12 0
-9 -13 0
-9 -14 0
-10 -11 0
-10 -12 0
-10 -13 0
-10 -14 0
-11 -12 0
-11 -13 0
-11 -14 0
-12 -13 0
-12 -14 0
-13 -14 0
-220 197 1 0
-221 198 2 0
-222 199 3 0
-223 200 4 0
-224 201 5 0
-225 202 6 0
-226 203 0
-227 204 7 0
-228 205 8 0
-229 206 9 0
-230 207 0
-231 208 0
-232 209 0
-233 210 10 0
-234 211 11 0
-235 212 0
-236 213 12 0
-237 214 13 0
-238 215 0
-239 216 0
-240 217 0
-241 218 14 0
-242 219 0
-15 -16 0
-15 -17 0
-15 -18 0
-15 -19 0
-15 -20 0
-15 -21 0
-15 -22 0
-15 -23 0
-15 -24 0
-15 -25 0
-15 -26 0
-15 -27 0
-15 -28 0
-16 -17 0
-16 -18 0
-16 -19 0
-16 -20 0
-16 -21 0
-16 -22 0
-16 -23 0
-16 -24 0
-16 -25 0
-16 -26 0
-16 -27 0
-16 -28 0
-17 -18 0
-17 -19 0
-17 -20 0
-17 -21 0
-17 -22 0
-17 -23 0
-17 -24 0
-17 -25 0
-17 -26 0
-17 -27 0
-17 -28 0
-18 -19 0
-18 -20 0
-18 -21 0
-18 -22 0
-18 -23 0
-18 -24 0
-18 -25 0
-18 -26 0
-18 -27 0
-18 -28 0
-19 -20 0
-19 -21 0
-19 -22 0
-19 -23 0
-19 -24 0
-19 -25 0
-19 -26 0
-19 -27 0
-19 -28 0
-20 -21 0
-20 -22 0
-20 -23 0
-20 -24 0
-20 -25 0
-20 -26 0
-20 -27 0
-20 -28 0
-21 -22 0
-21 -23 0
-21 -24 0
-21 -25 0
-21 -26 0
-21 -27 0
-21 -28 0
-22 -23 0
-22 -24 0
-22 -25 0
-22 -26 0
-22 -27 0
-22 -28 0
-23 -24 0
-23 -25 0
-23 -26 0
-23 -27 0
-23 -28 0
-24 -25 0
-24 -26 0
-24 -27 0
-24 -28 0
-25 -26 0
-25 -27 0
-25 -28 0
-26 -27 0
-26 -28 0
-27 -28 0
-243 220 15 0
-244 221 16 0
-245 222 17 0
-246 223 18 0
-247 224 19 0
-248 225 20 0
-249 226 0
-250 227 21 0
-251 228 22 0
-252 229 23 0
-253 230 0
-254 231 0
-255 232 0
-256 233 24 0
-257 234 25 0
-258 235 0
-259 236 26 0
-260 237 27 0
-261 238 0
-262 239 0
-263 240 0
-264 241 28 0
-265 242 0
-29 -30 0
-29 -31 0
-29 -32 0
-29 -33 0
-29 -34 0
-29 -35 0
-29 -36 0
-29 -37 0
-29 -38 0
-29 -39 0
-29 -40 0
-29 -41 0
-29 -42 0
-30 -31 0
-30 -32 0
-30 -33 0
-30 -34 0
-30 -35 0
-30 -36 0
-30 -37 0
-30 -38 0
-30 -39 0
-30 -40 0
-30 -41 0
-30 -42 0
-31 -32 0
-31 -33 0
-31 -34 0
-31 -35 0
-31 -36 0
-31 -37 0
-31 -38 0
-31 -39 0
-31 -40 0
-31 -41 0
-31 -42 0
-32 -33 0
-32 -34 0
-32 -35 0
-32 -36 0
-32 -37 0
-32 -38 0
-32 -39 0
-32 -40 0
-32 -41 0
-32 -42 0
-33 -34 0
-33 -35 0
-33 -36 0
-33 -37 0
-33 -38 0
-33 -39 0
-33 -40 0
-33 -41 0
-33 -42 0
-34 -35 0
-34 -36 0
-34 -37 0
-34 -38 0
-34 -39 0
-34 -40 0
-34 -41 0
-34 -42 0
-35 -36 0
-35 -37 0
-35 -38 0
-35 -39 0
-35 -40 0
-35 -41 0
-35 -42 0
-36 -37 0
-36 -38 0
-36 -39 0
-36 -40 0
-36 -41 0
-36 -42 0
-37 -38 0
-37 -39 0
-37 -40 0
-37 -41 0
-37 -42 0
-38 -39 0
-38 -40 0
-38 -41 0
-38 -42 0
-39 -40 0
-39 -41 0
-39 -42 0
-40 -41 0
-40 -42 0
-41 -42 0
-266 243 29 0
-267 244 30 0
-268 245 31 0
-269 246 32 0
-270 247 33 0
-271 248 34 0
-272 249 0
-273 250 35 0
-274 251 36 0
-275 252 37 0
-276 253 0
-277 254 0
-278 255 0
-279 256 38 0
-280 257 39 0
-281 258 0
-282 259 40 0
-283 260 41 0
-284 261 0
-285 262 0
-286 263 0
-287 264 42 0
-288 265 0
-43 -44 0
-43 -45 0
-43 -46 0
-43 -47 0
-43 -48 0
-43 -49 0
-43 -50 0
-43 -51 0
-43 -52 0
-43 -53 0
-43 -54 0
-43 -55 0
-43 -56 0
-44 -45 0
-44 -46 0
-44 -47 0
-44 -48 0
-44 -49 0
-44 -50 0
-44 -51 0
-44 -52 0
-44 -53 0
-44 -54 0
-44 -55 0
-44 -56 0
-45 -46 0
-45 -47 0
-45 -48 0
-45 -49 0
-45 -50 0
-45 -51 0
-45 -52 0
-45 -53 0
-45 -54 0
-45 -55 0
-45 -56 0
-46 -47 0
-46 -48 0
-46 -49 0
-46 -50 0
-46 -51 0
-46 -52 0
-46 -53 0
-46 -54 0
-46 -55 0
-46 -56 0
-47 -48 0
-47 -49 0
-47 -50 0
-47 -51 0
-47 -52 0
-47 -53 0
-47 -54 0
-47 -55 0
-47 -56 0
-48 -49 0
-48 -50 0
-48 -51 0
-48 -52 0
-48 -53 0
-48 -54 0
-48 -55 0
-48 -56 0
-49 -50 0
-49 -51 0
-49 -52 0
-49 -53 0
-49 -54 0
-49 -55 0
-49 -56 0
-50 -51 0
-50 -52 0
-50 -53 0
-50 -54 0
-50 -55 0
-50 -56 0
-51 -52 0
-51 -53 0
-51 -54 0
-51 -55 0
-51 -56 0
-52 -53 0
-52 -54 0
-52 -55 0
-52 -56 0
-53 -54 0
-53 -55 0
-53 -56 0
-54 -55 0
-54 -56 0
-55 -56 0
-289 266 43 0
-290 267 44 0
-291 268 45 0
-292 269 46 0
-293 270 47 0
-294 271 48 0
-295 272 0
-296 273 49 0
-297 274 50 0
-298 275 51 0
-299 276 0
-300 277 0
-301 278 0
-302 279 52 0
-303 280 53 0
-304 281 0
-305 282 54 0
-306 283 55 0
-307 284 0
-308 285 0
-309 286 0
-310 287 56 0
-311 288 0
-57 -58 0
-57 -59 0
-57 -60 0
-57 -61 0
-57 -62 0
-57 -63 0
-57 -64 0
-57 -65 0
-57 -66 0
-57 -67 0
-57 -68 0
-57 -69 0
-57 -70 0
-58 -59 0
-58 -60 0
-58 -61 0
-58 -62 0
-58 -63 0
-58 -64 0
-58 -65 0
-58 -66 0
-58 -67 0
-58 -68 0
-58 -69 0
-58 -70 0
-59 -60 0
-59 -61 0
-59 -62 0
-59 -63 0
-59 -64 0
-59 -65 0
-59 -66 0
-59 -67 0
-59 -68 0
-59 -69 0
-59 -70 0
-60 -61 0
-60 -62 0
-60 -63 0
-60 -64 0
-60 -65 0
-60 -66 0
-60 -67 0
-60 -68 0
-60 -69 0
-60 -70 0
-61 -62 0
-61 -63 0
-61 -64 0
-61 -65 0
-61 -66 0
-61 -67 0
-61 -68 0
-61 -69 0
-61 -70 0
-62 -63 0
-62 -64 0
-62 -65 0
-62 -66 0
-62 -67 0
-62 -68 0
-62 -69 0
-62 -70 0
-63 -64 0
-63 -65 0
-63 -66 0
-63 -67 0
-63 -68 0
-63 -69 0
-63 -70 0
-64 -65 0
-64 -66 0
-64 -67 0
-64 -68 0
-64 -69 0
-64 -70 0
-65 -66 0
-65 -67 0
-65 -68 0
-65 -69 0
-65 -70 0
-66 -67 0
-66 -68 0
-66 -69 0
-66 -70 0
-67 -68 0
-67 -69 0
-67 -70 0
-68 -69 0
-68 -70 0
-69 -70 0
-312 289 57 0
-313 290 58 0
-314 291 59 0
-315 292 60 0
-316 293 61 0
-317 294 62 0
-318 295 0
-319 296 63 0
-320 297 64 0
-321 298 65 0
-322 299 0
-323 300 0
-324 301 0
-325 302 66 0
-326 303 67 0
-327 304 0
-328 305 68 0
-329 306 69 0
-330 307 0
-331 308 0
-332 309 0
-333 310 70 0
-334 311 0
-71 -72 0
-71 -73 0
-71 -74 0
-71 -75 0
-71 -76 0
-71 -77 0
-71 -78 0
-71 -79 0
-71 -80 0
-71 -81 0
-71 -82 0
-71 -83 0
-71 -84 0
-72 -73 0
-72 -74 0
-72 -75 0
-72 -76 0
-72 -77 0
-72 -78 0
-72 -79 0
-72 -80 0
-72 -81 0
-72 -82 0
-72 -83 0
-72 -84 0
-73 -74 0
-73 -75 0
-73 -76 0
-73 -77 0
-73 -78 0
-73 -79 0
-73 -80 0
-73 -81 0
-73 -82 0
-73 -83 0
-73 -84 0
-74 -75 0
-74 -76 0
-74 -77 0
-74 -78 0
-74 -79 0
-74 -80 0
-74 -81 0
-74 -82 0
-74 -83 0
-74 -84 0
-75 -76 0
-75 -77 0
-75 -78 0
-75 -79 0
-75 -80 0
-75 -81 0
-75 -82 0
-75 -83 0
-75 -84 0
-76 -77 0
-76 -78 0
-76 -79 0
-76 -80 0
-76 -81 0
-76 -82 0
-76 -83 0
-76 -84 0
-77 -78 0
-77 -79 0
-77 -80 0
-77 -81 0
-77 -82 0
-77 -83 0
-77 -84 0
-78 -79 0
-78 -80 0
-78 -81 0
-78 -82 0
-78 -83 0
-78 -84 0
-79 -80 0
-79 -81 0
-79 -82 0
-79 -83 0
-79 -84 0
-80 -81 0
-80 -82 0
-80 -83 0
-80 -84 0
-81 -82 0
-81 -83 0
-81 -84 0
-82 -83 0
-82 -84 0
-83 -84 0
-335 312 71 0
-336 313 72 0
-337 314 73 0
-338 315 74 0
-339 316 75 0
-340 317 76 0
-341 318 0
-342 319 77 0
-343 320 78 0
-344 321 79 0
-345 322 0
-346 323 0
-347 324 0
-348 325 80 0
-349 326 81 0
-350 327 0
-351 328 82 0
-352 329 83 0
-353 330 0
-354 331 0
-355 332 0
-356 333 84 0
-357 334 0
-85 -86 0
-85 -87 0
-85 -88 0
-85 -89 0
-85 -90 0
-85 -91 0
-85 -92 0
-85 -93 0
-85 -94 0
-85 -95 0
-85 -96 0
-85 -97 0
-85 -98 0
-86 -87 0
-86 -88 0
-86 -89 0
-86 -90 0
-86 -91 0
-86 -92 0
-86 -93 0
-86 -94 0
-86 -95 0
-86 -96 0
-86 -97 0
-86 -98 0
-87 -88 0
-87 -89 0
-87 -90 0
-87 -91 0
-87 -92 0
-87 -93 0
-87 -94 0
-87 -95 0
-87 -96 0
-87 -97 0
-87 -98 0
-88 -89 0
-88 -90 0
-88 -91 0
-88 -92 0
-88 -93 0
-88 -94 0
-88 -95 0
-88 -96 0
-88 -97 0
-88 -98 0
-89 -90 0
-89 -91 0
-89 -92 0
-89 -93 0
-89 -94 0
-89 -95 0
-89 -96 0
-89 -97 0
-89 -98 0
-90 -91 0
-90 -92 0
-90 -93 0
-90 -94 0
-90 -95 0
-90 -96 0
-90 -97 0
-90 -98 0
-91 -92 0
-91 -93 0
-91 -94 0
-91 -95 0
-91 -96 0
-91 -97 0
-91 -98 0
-92 -93 0
-92 -94 0
-92 -95 0
-92 -96 0
-92 -97 0
-92 -98 0
-93 -94 0
-93 -95 0
-93 -96 0
-93 -97 0
-93 -98 0
-94 -95 0
-94 -96 0
-94 -97 0
-94 -98 0
-95 -96 0
-95 -97 0
-95 -98 0
-96 -97 0
-96 -98 0
-97 -98 0
-358 335 85 0
-359 336 86 0
-360 337 87 0
-361 338 88 0
-362 339 89 0
-363 340 90 0
-364 341 0
-365 342 91 0
-366 343 92 0
-367 344 93 0
-368 345 0
-369 346 0
-370 347 0
-371 348 94 0
-372 349 95 0
-373 350 0
-374 351 96 0
-375 352 97 0
-376 353 0
-377 354 0
-378 355 0
-379 356 98 0
-380 357 0
-99 -100 0
-99 -101 0
-99 -102 0
-99 -103 0
-99 -104 0
-99 -105 0
-99 -106 0
-99 -107 0
-99 -108 0
-99 -109 0
-99 -110 0
-99 -111 0
-99 -112 0
-100 -101 0
-100 -102 0
-100 -103 0
-100 -104 0
-100 -105 0
-100 -106 0
-100 -107 0
-100 -108 0
-100 -109 0
-100 -110 0
-100 -111 0
-100 -112 0
-101 -102 0
-101 -103 0
-101 -104 0
-101 -105 0
-101 -106 0
-101 -107 0
-101 -108 0
-101 -109 0
-101 -110 0
-101 -111 0
-101 -112 0
-102 -103 0
-102 -104 0
-102 -105 0
-102 -106 0
-102 -107 0
-102 -108 0
-102 -109 0
-102 -110 0
-102 -111 0
-102 -112 0
-103 -104 0
-103 -105 0
-103 -106 0
-103 -107 0
-103 -108 0
-103 -109 0
-103 -110 0
-103 -111 0
-103 -112 0
-104 -105 0
-104 -106 0
-104 -107 0
-104 -108 0
-104 -109 0
-104 -110 0
-104 -111 0
-104 -112 0
-105 -106 0
-105 -107 0
-105 -108 0
-105 -109 0
-105 -110 0
-105 -111 0
-105 -112 0
-106 -107 0
-106 -108 0
-106 -109 0
-106 -110 0
-106 -111 0
-106 -112 0
-107 -108 0
-107 -109 0
-107 -110 0
-107 -111 0
-107 -112 0
-108 -109 0
-108 -110 0
-108 -111 0
-108 -112 0
-109 -110 0
-109 -111 0
-109 -112 0
-110 -111 0
-110 -112 0
-111 -112 0
-381 358 99 0
-382 359 100 0
-383 360 101 0
-384 361 102 0
-385 362 103 0
-386 363 104 0
-387 364 0
-388 365 105 0
-389 366 106 0
-390 367 107 0
-391 368 0
-392 369 0
-393 370 0
-394 371 108 0
-395 372 109 0
-396 373 0
-397 374 110 0
-398 375 111 0
-399 376 0
-400 377 0
-401 378 0
-402 379 112 0
-403 380 0
-113 -114 0
-113 -115 0
-113 -116 0
-113 -117 0
-113 -118 0
-113 -119 0
-113 -120 0
-113 -121 0
-113 -122 0
-113 -123 0
-113 -124 0
-113 -125 0
-113 -126 0
-114 -115 0
-114 -116 0
-114 -117 0
-114 -118 0
-114 -119 0
-114 -120 0
-114 -121 0
-114 -122 0
-114 -123 0
-114 -124 0
-114 -125 0
-114 -126 0
-115 -116 0
-115 -117 0
-115 -118 0
-115 -119 0
-115 -120 0
-115 -121 0
-115 -122 0
-115 -123 0
-115 -124 0
-115 -125 0
-115 -126 0
-116 -117 0
-116 -118 0
-116 -119 0
-116 -120 0
-116 -121 0
-116 -122 0
-116 -123 0
-116 -124 0
-116 -125 0
-116 -126 0
-117 -118 0
-117 -119 0
-117 -120 0
-117 -121 0
-117 -122 0
-117 -123 0
-117 -124 0
-117 -125 0
-117 -126 0
-118 -119 0
-118 -120 0
-118 -121 0
-118 -122 0
-118 -123 0
-118 -124 0
-118 -125 0
-118 -126 0
-119 -120 0
-119 -121 0
-119 -122 0
-119 -123 0
-119 -124 0
-119 -125 0
-119 -126 0
-120 -121 0
-120 -122 0
-120 -123 0
-120 -124 0
-120 -125 0
-120 -126 0
-121 -122 0
-121 -123 0
-121 -124 0
-121 -125 0
-121 -126 0
-122 -123 0
-122 -124 0
-122 -125 0
-122 -126 0
-123 -124 0
-123 -125 0
-123 -126 0
-124 -125 0
-124 -126 0
-125 -126 0
-404 381 113 0
-405 382 114 0
-406 383 115 0
-407 384 116 0
-408 385 117 0
-409 386 118 0
-410 387 0
-411 388 119 0
-412 389 120 0
-413 390 121 0
-414 391 0
-415 392 0
-416 393 0
-417 394 122 0
-418 395 123 0
-419 396 0
-420 397 124 0
-421 398 125 0
-422 399 0
-423 400 0
-424 401 0
-425 402 126 0
-426 403 0
-127 -128 0
-127 -129 0
-127 -130 0
-127 -131 0
-127 -132 0
-127 -133 0
-127 -134 0
-127 -135 0
-127 -136 0
-127 -137 0
-127 -138 0
-127 -139 0
-127 -140 0
-128 -129 0
-128 -130 0
-128 -131 0
-128 -132 0
-128 -133 0
-128 -134 0
-128 -135 0
-128 -136 0
-128 -137 0
-128 -138 0
-128 -139 0
-128 -140 0
-129 -130 0
-129 -131 0
-129 -132 0
-129 -133 0
-129 -134 0
-129 -135 0
-129 -136 0
-129 -137 0
-129 -138 0
-129 -139 0
-129 -140 0
-130 -131 0
-130 -132 0
-130 -133 0
-130 -134 0
-130 -135 0
-130 -136 0
-130 -137 0
-130 -138 0
-130 -139 0
-130 -140 0
-131 -132 0
-131 -133 0
-131 -134 0
-131 -135 0
-131 -136 0
-131 -137 0
-131 -138 0
-131 -139 0
-131 -140 0
-132 -133 0
-132 -134 0
-132 -135 0
-132 -136 0
-132 -137 0
-132 -138 0
-132 -139 0
-132 -140 0
-133 -134 0
-133 -135 0
-133 -136 0
-133 -137 0
-133 -138 0
-133 -139 0
-133 -140 0
-134 -135 0
-134 -136 0
-134 -137 0
-134 -138 0
-134 -139 0
-134 -140 0
-135 -136 0
-135 -137 0
-135 -138 0
-135 -139 0
-135 -140 0
-136 -137 0
-136 -138 0
-136 -139 0
-136 -140 0
-137 -138 0
-137 -139 0
-137 -140 0
-138 -139 0
-138 -140 0
-139 -140 0
-427 404 127 0
-428 405 128 0
-429 406 129 0
-430 407 130 0
-431 408 131 0
-432 409 132 0
-433 410 0
-434 411 133 0
-435 412 134 0
-436 413 135 0
-437 414 0
-438 415 0
-439 416 0
-440 417 136 0
-441 418 137 0
-442 419 0
-443 420 138 0
-444 421 139 0
-445 422 0
-446 423 0
-447 424 0
-448 425 140 0
-449 426 0
-141 -142 0
-141 -143 0
-141 -144 0
-141 -145 0
-141 -146 0
-141 -147 0
-141 -148 0
-141 -149 0
-141 -150 0
-141 -151 0
-141 -152 0
-141 -153 0
-141 -154 0
-142 -143 0
-142 -144 0
-142 -145 0
-142 -146 0
-142 -147 0
-142 -148 0
-142 -149 0
-142 -150 0
-142 -151 0
-142 -152 0
-142 -153 0
-142 -154 0
-143 -144 0
-143 -145 0
-143 -146 0
-143 -147 0
-143 -148 0
-143 -149 0
-143 -150 0
-143 -151 0
-143 -152 0
-143 -153 0
-143 -154 0
-144 -145 0
-144 -146 0
-144 -147 0
-144 -148 0
-144 -149 0
-144 -150 0
-144 -151 0
-144 -152 0
-144 -153 0
-144 -154 0
-145 -146 0
-145 -147 0
-145 -148 0
-145 -149 0
-145 -150 0
-145 -151 0
-145 -152 0
-145 -153 0
-145 -154 0
-146 -147 0
-146 -148 0
-146 -149 0
-146 -150 0
-146 -151 0
-146 -152 0
-146 -153 0
-146 -154 0
-147 -148 0
-147 -149 0
-147 -150 0
-147 -151 0
-147 -152 0
-147 -153 0
-147 -154 0
-148 -149 0
-148 -150 0
-148 -151 0
-148 -152 0
-148 -153 0
-148 -154 0
-149 -150 0
-149 -151 0
-149 -152 0
-149 -153 0
-149 -154 0
-150 -151 0
-150 -152 0
-150 -153 0
-150 -154 0
-151 -152 0
-151 -153 0
-151 -154 0
-152 -153 0
-152 -154 0
-153 -154 0
-450 427 141 0
-451 428 142 0
-452 429 143 0
-453 430 144 0
-454 431 145 0
-455 432 146 0
-456 433 0
-457 434 147 0
-458 435 148 0
-459 436 149 0
-460 437 0
-461 438 0
-462 439 0
-463 440 150 0
-464 441 151 0
-465 442 0
-466 443 152 0
-467 444 153 0
-468 445 0
-469 446 0
-470 447 0
-471 448 154 0
-472 449 0
-155 -156 0
-155 -157 0
-155 -158 0
-155 -159 0
-155 -160 0
-155 -161 0
-155 -162 0
-155 -163 0
-155 -164 0
-155 -165 0
-155 -166 0
-155 -167 0
-155 -168 0
-156 -157 0
-156 -158 0
-156 -159 0
-156 -160 0
-156 -161 0
-156 -162 0
-156 -163 0
-156 -164 0
-156 -165 0
-156 -166 0
-156 -167 0
-156 -168 0
-157 -158 0
-157 -159 0
-157 -160 0
-157 -161 0
-157 -162 0
-157 -163 0
-157 -164 0
-157 -165 0
-157 -166 0
-157 -167 0
-157 -168 0
-158 -159 0
-158 -160 0
-158 -161 0
-158 -162 0
-158 -163 0
-158 -164 0
-158 -165 0
-158 -166 0
-158 -167 0
-158 -168 0
-159 -160 0
-159 -161 0
-159 -162 0
-159 -163 0
-159 -164 0
-159 -165 0
-159 -166 0
-159 -167 0
-159 -168 0
-160 -161 0
-160 -162 0
-160 -163 0
-160 -164 0
-160 -165 0
-160 -166 0
-160 -167 0
-160 -168 0
-161 -162 0
-161 -163 0
-161 -164 0
-161 -165 0
-161 -166 0
-161 -167 0
-161 -168 0
-162 -163 0
-162 -164 0
-162 -165 0
-162 -166 0
-162 -167 0
-162 -168 0
-163 -164 0
-163 -165 0
-163 -166 0
-163 -167 0
-163 -168 0
-164 -165 0
-164 -166 0
-164 -167 0
-164 -168 0
-165 -166 0
-165 -167 0
-165 -168 0
-166 -167 0
-166 -168 0
-167 -168 0
-473 450 155 0
-474 451 156 0
-475 452 157 0
-476 453 158 0
-477 454 159 0
-478 455 160 0
-479 456 0
-480 457 161 0
-481 458 162 0
-482 459 163 0
-483 460 0
-484 461 0
-485 462 0
-486 463 164 0
-487 464 165 0
-488 465 0
-489 466 166 0
-490 467 167 0
-491 468 0
-492 469 0
-493 470 0
-494 471 168 0
-495 472 0
-169 -170 0
-169 -171 0
-169 -172 0
-169 -173 0
-169 -174 0
-169 -175 0
-169 -176 0
-169 -177 0
-169 -178 0
-169 -179 0
-169 -180 0
-169 -181 0
-169 -182 0
-170 -171 0
-170 -172 0
-170 -173 0
-170 -174 0
-170 -175 0
-170 -176 0
-170 -177 0
-170 -178 0
-170 -179 0
-170 -180 0
-170 -181 0
-170 -182 0
-171 -172 0
-171 -173 0
-171 -174 0
-171 -175 0
-171 -176 0
-171 -177 0
-171 -178 0
-171 -179 0
-171 -180 0
-171 -181 0
-171 -182 0
-172 -173 0
-172 -174 0
-172 -175 0
-172 -176 0
-172 -177 0
-172 -178 0
-172 -179 0
-172 -180 0
-172 -181 0
-172 -182 0
-173 -174 0
-173 -175 0
-173 -176 0
-173 -177 0
-173 -178 0
-173 -179 0
-173 -180 0
-173 -181 0
-173 -182 0
-174 -175 0
-174 -176 0
-174 -177 0
-174 -178 0
-174 -179 0
-174 -180 0
-174 -181 0
-174 -182 0
-175 -176 0
-175 -177 0
-175 -178 0
-175 -179 0
-175 -180 0
-175 -181 0
-175 -182 0
-176 -177 0
-176 -178 0
-176 -179 0
-176 -180 0
-176 -181 0
-176 -182 0
-177 -178 0
-177 -179 0
-177 -180 0
-177 -181 0
-177 -182 0
-178 -179 0
-178 -180 0
-178 -181 0
-178 -182 0
-179 -180 0
-179 -181 0
-179 -182 0
-180 -181 0
-180 -182 0
-181 -182 0
-496 473 169 0
-497 474 170 0
-498 475 171 0
-499 476 172 0
-500 477 173 0
-501 478 174 0
-502 479 0
-503 480 175 0
-504 481 176 0
-505 482 177 0
-506 483 0
-507 484 0
-508 485 0
-509 486 178 0
-510 487 179 0
-511 488 0
-512 489 180 0
-513 490 181 0
-514 491 0
-515 492 0
-516 493 0
-517 494 182 0
-518 495 0
-183 -184 0
-183 -185 0
-183 -186 0
-183 -187 0
-183 -188 0
-183 -189 0
-183 -190 0
-183 -191 0
-183 -192 0
-183 -193 0
-183 -194 0
-183 -195 0
-183 -196 0
-184 -185 0
-184 -186 0
-184 -187 0
-184 -188 0
-184 -189 0
-184 -190 0
-184 -191 0
-184 -192 0
-184 -193 0
-184 -194 0
-184 -195 0
-184 -196 0
-185 -186 0
-185 -187 0
-185 -188 0
-185 -189 0
-185 -190 0
-185 -191 0
-185 -192 0
-185 -193 0
-185 -194 0
-185 -195 0
-185 -196 0
-186 -187 0
-186 -188 0
-186 -189 0
-186 -190 0
-186 -191 0
-186 -192 0
-186 -193 0
-186 -194 0
-186 -195 0
-186 -196 0
-187 -188 0
-187 -189 0
-187 -190 0
-187 -191 0
-187 -192 0
-187 -193 0
-187 -194 0
-187 -195 0
-187 -196 0
-188 -189 0
-188 -190 0
-188 -191 0
-188 -192 0
-188 -193 0
-188 -194 0
-188 -195 0
-188 -196 0
-189 -190 0
-189 -191 0
-189 -192 0
-189 -193 0
-189 -194 0
-189 -195 0
-189 -196 0
-190 -191 0
-190 -192 0
-190 -193 0
-190 -194 0
-190 -195 0
-190 -196 0
-191 -192 0
-191 -193 0
-191 -194 0
-191 -195 0
-191 -196 0
-192 -193 0
-192 -194 0
-192 -195 0
-192 -196 0
-193 -194 0
-193 -195 0
-193 -196 0
-194 -195 0
-194 -196 0
-195 -196 0
-519 496 183 0
-520 497 184 0
-521 498 185 0
-522 499 186 0
-523 500 187 0
-524 501 188 0
-525 502 0
-526 503 189 0
-527 504 190 0
-528 505 191 0
-529 506 0
-530 507 0
-531 508 0
-532 509 192 0
-533 510 193 0
-534 511 0
-535 512 194 0
-536 513 195 0
-537 514 0
-538 515 0
-539 516 0
-540 517 196 0
-541 518 0
-197 0
-198 0
-199 0
-200 0
-201 0
-202 0
203 0
-204 0
-205 0
-206 0
207 0
208 0
209 0
-210 0
-211 0
212 0
-213 0
-214 0
215 0
216 0
217 0
-218 0
219 0
1 15 29 43 57 71 85 99 113 127 141 155 169 183 0
2 16 30 44 58 72 86 100 114 128 142 156 170 184 0
3 17 31 45 59 73 87 101 115 129 143 157 171 185 0
4 18 32 46 60 74 88 102 116 130 144 158 172 186 0
5 19 33 47 61 75 89 103 117 131 145 159 173 187 0
6 20 34 48 62 76 90 104 118 132 146 160 174 188 0
7 21 35 49 63 77 91 105 119 133 147 161 175 189 0
8 22 36 50 64 78 92 106 120 134 148 162 176 190 0
9 23 37 51 65 79 93 107 121 135 149 163 177 191 0
10 24 38 52 66 80 94 108 122 136 150 164 178 192 0
11 25 39 53 67 81 95 109 123 137 151 165 179 193 0
12 26 40 54 68 82 96 110 124 138 152 166 180 194 0
13 27 41 55 69 83 97 111 125 139 153 167 181 195 0
14 28 42 56 70 84 98 112 126 140 154 168 182 196 0
-542 198 0
-542 215 0
-543 198 0
-543 215 0
-1 542 543 0
-544 197 0
-544 215 0
-545 197 0
-545 215 0
-546 199 0
-546 209 0
-547 199 0
-547 209 0
-548 202 0
-548 208 0
-549 202 0
-549 208 0
-2 544 545 546 547 548 549 0
-550 198 0
-550 209 0
-551 198 0
-551 209 0
-552 200 0
-552 216 0
-553 200 0
-553 216 0
-554 203 0
-554 208 0
-555 203 0
-555 208 0
-3 550 551 552 553 554 555 0
-556 199 0
-556 216 0
-557 199 0
-557 216 0
-558 201 0
-558 219 0
-559 201 0
-559 219 0
-4 556 557 558 559 0
-560 200 0
-560 219 0
-561 200 0
-561 219 0
-5 560 561 0
-562 198 0
-562 208 0
-563 198 0
-563 208 0
-564 203 0
-564 209 0
-565 203 0
-565 209 0
-566 204 0
-566 207 0
-567 204 0
-567 207 0
-6 562 563 564 565 566 567 0
-568 202 0
-568 207 0
-569 202 0
-569 207 0
-570 205 0
-570 212 0
-571 205 0
-571 212 0
-7 568 569 570 571 0
-572 204 0
-572 212 0
-573 204 0
-573 212 0
-8 572 573 0
-9 0
-574 211 0
-574 219 0
-575 211 0
-575 219 0
-576 212 0
-576 217 0
-577 212 0
-577 217 0
-10 574 575 576 577 0
-578 210 0
-578 219 0
-579 210 0
-579 219 0
-580 212 0
-580 218 0
-581 212 0
-581 218 0
-582 214 0
-582 215 0
-583 214 0
-583 215 0
-11 578 579 580 581 582 583 0
-584 214 0
-584 218 0
-585 214 0
-585 218 0
-12 584 585 0
-586 211 0
-586 215 0
-587 211 0
-587 215 0
-588 213 0
-588 218 0
-589 213 0
-589 218 0
-13 586 587 588 589 0
-590 211 0
-590 212 0
-591 211 0
-591 212 0
-592 213 0
-592 214 0
-593 213 0
-593 214 0
-594 217 0
-594 219 0
-595 217 0
-595 219 0
-14 590 591 592 593 594 595 0
-596 221 0
-596 238 0
-597 221 0
-597 238 0
-15 596 597 0
-598 220 0
-598 238 0
-599 220 0
-599 238 0
-600 222 0
-600 232 0
-601 222 0
-601 232 0
-602 225 0
-602 231 0
-603 225 0
-603 231 0
-16 598 599 600 601 602 603 0
-604 221 0
-604 232 0
-605 221 0
-605 232 0
-606 223 0
-606 239 0
-607 223 0
-607 239 0
-608 226 0
-608 231 0
-609 226 0
-609 231 0
-17 604 605 606 607 608 609 0
-610 222 0
-610 239 0
-611 222 0
-611 239 0
-612 224 0
-612 242 0
-613 224 0
-613 242 0
-18 610 611 612 613 0
-614 223 0
-614 242 0
-615 223 0
-615 242 0
-19 614 615 0
-616 221 0
-616 231 0
-617 221 0
-617 231 0
-618 226 0
-618 232 0
-619 226 0
-619 232 0
-620 227 0
-620 230 0
-621 227 0
-621 230 0
-20 616 617 618 619 620 621 0
-622 225 0
-622 230 0
-623 225 0
-623 230 0
-624 228 0
-624 235 0
-625 228 0
-625 235 0
-21 622 623 624 625 0
-626 227 0
-626 235 0
-627 227 0
-627 235 0
-22 626 627 0
-23 0
-628 234 0
-628 242 0
-629 234 0
-629 242 0
-630 235 0
-630 240 0
-631 235 0
-631 240 0
-24 628 629 630 631 0
-632 233 0
-632 242 0
-633 233 0
-633 242 0
-634 235 0
-634 241 0
-635 235 0
-635 241 0
-636 237 0
-636 238 0
-637 237 0
-637 238 0
-25 632 633 634 635 636 637 0
-638 237 0
-638 241 0
-639 237 0
-639 241 0
-26 638 639 0
-640 234 0
-640 238 0
-641 234 0
-641 238 0
-642 236 0
-642 241 0
-643 236 0
-643 241 0
-27 640 641 642 643 0
-644 234 0
-644 235 0
-645 234 0
-645 235 0
-646 236 0
-646 237 0
-647 236 0
-647 237 0
-648 240 0
-648 242 0
-649 240 0
-649 242 0
-28 644 645 646 647 648 649 0
-650 244 0
-650 261 0
-651 244 0
-651 261 0
-29 650 651 0
-652 243 0
-652 261 0
-653 243 0
-653 261 0
-654 245 0
-654 255 0
-655 245 0
-655 255 0
-656 248 0
-656 254 0
-657 248 0
-657 254 0
-30 652 653 654 655 656 657 0
-658 244 0
-658 255 0
-659 244 0
-659 255 0
-660 246 0
-660 262 0
-661 246 0
-661 262 0
-662 249 0
-662 254 0
-663 249 0
-663 254 0
-31 658 659 660 661 662 663 0
-664 245 0
-664 262 0
-665 245 0
-665 262 0
-666 247 0
-666 265 0
-667 247 0
-667 265 0
-32 664 665 666 667 0
-668 246 0
-668 265 0
-669 246 0
-669 265 0
-33 668 669 0
-670 244 0
-670 254 0
-671 244 0
-671 254 0
-672 249 0
-672 255 0
-673 249 0
-673 255 0
-674 250 0
-674 253 0
-675 250 0
-675 253 0
-34 670 671 672 673 674 675 0
-676 248 0
-676 253 0
-677 248 0
-677 253 0
-678 251 0
-678 258 0
-679 251 0
-679 258 0
-35 676 677 678 679 0
-680 250 0
-680 258 0
-681 250 0
-681 258 0
-36 680 681 0
-37 0
-682 257 0
-682 265 0
-683 257 0
-683 265 0
-684 258 0
-684 263 0
-685 258 0
-685 263 0
-38 682 683 684 685 0
-686 256 0
-686 265 0
-687 256 0
-687 265 0
-688 258 0
-688 264 0
-689 258 0
-689 264 0
-690 260 0
-690 261 0
-691 260 0
-691 261 0
-39 686 687 688 689 690 691 0
-692 260 0
-692 264 0
-693 260 0
-693 264 0
-40 692 693 0
-694 257 0
-694 261 0
-695 257 0
-695 261 0
-696 259 0
-696 264 0
-697 259 0
-697 264 0
-41 694 695 696 697 0
-698 257 0
-698 258 0
-699 257 0
-699 258 0
-700 259 0
-700 260 0
-701 259 0
-701 260 0
-702 263 0
-702 265 0
-703 263 0
-703 265 0
-42 698 699 700 701 702 703 0
-704 267 0
-704 284 0
-705 267 0
-705 284 0
-43 704 705 0
-706 266 0
-706 284 0
-707 266 0
-707 284 0
-708 268 0
-708 278 0
-709 268 0
-709 278 0
-710 271 0
-710 277 0
-711 271 0
-711 277 0
-44 706 707 708 709 710 711 0
-712 267 0
-712 278 0
-713 267 0
-713 278 0
-714 269 0
-714 285 0
-715 269 0
-715 285 0
-716 272 0
-716 277 0
-717 272 0
-717 277 0
-45 712 713 714 715 716 717 0
-718 268 0
-718 285 0
-719 268 0
-719 285 0
-720 270 0
-720 288 0
-721 270 0
-721 288 0
-46 718 719 720 721 0
-722 269 0
-722 288 0
-723 269 0
-723 288 0
-47 722 723 0
-724 267 0
-724 277 0
-725 267 0
-725 277 0
-726 272 0
-726 278 0
-727 272 0
-727 278 0
-728 273 0
-728 276 0
-729 273 0
-729 276 0
-48 724 725 726 727 728 729 0
-730 271 0
-730 276 0
-731 271 0
-731 276 0
-732 274 0
-732 281 0
-733 274 0
-733 281 0
-49 730 731 732 733 0
-734 273 0
-734 281 0
-735 273 0
-735 281 0
-50 734 735 0
-51 0
-736 280 0
-736 288 0
-737 280 0
-737 288 0
-738 281 0
-738 286 0
-739 281 0
-739 286 0
-52 736 737 738 739 0
-740 279 0
-740 288 0
-741 279 0
-741 288 0
-742 281 0
-742 287 0
-743 281 0
-743 287 0
-744 283 0
-744 284 0
-745 283 0
-745 284 0
-53 740 741 742 743 744 745 0
-746 283 0
-746 287 0
-747 283 0
-747 287 0
-54 746 747 0
-748 280 0
-748 284 0
-749 280 0
-749 284 0
-750 282 0
-750 287 0
-751 282 0
-751 287 0
-55 748 749 750 751 0
-752 280 0
-752 281 0
-753 280 0
-753 281 0
-754 282 0
-754 283 0
-755 282 0
-755 283 0
-756 286 0
-756 288 0
-757 286 0
-757 288 0
-56 752 753 754 755 756 757 0
-758 290 0
-758 307 0
-759 290 0
-759 307 0
-57 758 759 0
-760 289 0
-760 307 0
-761 289 0
-761 307 0
-762 291 0
-762 301 0
-763 291 0
-763 301 0
-764 294 0
-764 300 0
-765 294 0
-765 300 0
-58 760 761 762 763 764 765 0
-766 290 0
-766 301 0
-767 290 0
-767 301 0
-768 292 0
-768 308 0
-769 292 0
-769 308 0
-770 295 0
-770 300 0
-771 295 0
-771 300 0
-59 766 767 768 769 770 771 0
-772 291 0
-772 308 0
-773 291 0
-773 308 0
-774 293 0
-774 311 0
-775 293 0
-775 311 0
-60 772 773 774 775 0
-776 292 0
-776 311 0
-777 292 0
-777 311 0
-61 776 777 0
-778 290 0
-778 300 0
-779 290 0
-779 300 0
-780 295 0
-780 301 0
-781 295 0
-781 301 0
-782 296 0
-782 299 0
-783 296 0
-783 299 0
-62 778 779 780 781 782 783 0
-784 294 0
-784 299 0
-785 294 0
-785 299 0
-786 297 0
-786 304 0
-787 297 0
-787 304 0
-63 784 785 786 787 0
-788 296 0
-788 304 0
-789 296 0
-789 304 0
-64 788 789 0
-65 0
-790 303 0
-790 311 0
-791 303 0
-791 311 0
-792 304 0
-792 309 0
-793 304 0
-793 309 0
-66 790 791 792 793 0
-794 302 0
-794 311 0
-795 302 0
-795 311 0
-796 304 0
-796 310 0
-797 304 0
-797 310 0
-798 306 0
-798 307 0
-799 306 0
-799 307 0
-67 794 795 796 797 798 799 0
-800 306 0
-800 310 0
-801 306 0
-801 310 0
-68 800 801 0
-802 303 0
-802 307 0
-803 303 0
-803 307 0
-804 305 0
-804 310 0
-805 305 0
-805 310 0
-69 802 803 804 805 0
-806 303 0
-806 304 0
-807 303 0
-807 304 0
-808 305 0
-808 306 0
-809 305 0
-809 306 0
-810 309 0
-810 311 0
-811 309 0
-811 311 0
-70 806 807 808 809 810 811 0
-812 313 0
-812 330 0
-813 313 0
-813 330 0
-71 812 813 0
-814 312 0
-814 330 0
-815 312 0
-815 330 0
-816 314 0
-816 324 0
-817 314 0
-817 324 0
-818 317 0
-818 323 0
-819 317 0
-819 323 0
-72 814 815 816 817 818 819 0
-820 313 0
-820 324 0
-821 313 0
-821 324 0
-822 315 0
-822 331 0
-823 315 0
-823 331 0
-824 318 0
-824 323 0
-825 318 0
-825 323 0
-73 820 821 822 823 824 825 0
-826 314 0
-826 331 0
-827 314 0
-827 331 0
-828 316 0
-828 334 0
-829 316 0
-829 334 0
-74 826 827 828 829 0
-830 315 0
-830 334 0
-831 315 0
-831 334 0
-75 830 831 0
-832 313 0
-832 323 0
-833 313 0
-833 323 0
-834 318 0
-834 324 0
-835 318 0
-835 324 0
-836 319 0
-836 322 0
-837 319 0
-837 322 0
-76 832 833 834 835 836 837 0
-838 317 0
-838 322 0
-839 317 0
-839 322 0
-840 320 0
-840 327 0
-841 320 0
-841 327 0
-77 838 839 840 841 0
-842 319 0
-842 327 0
-843 319 0
-843 327 0
-78 842 843 0
-79 0
-844 326 0
-844 334 0
-845 326 0
-845 334 0
-846 327 0
-846 332 0
-847 327 0
-847 332 0
-80 844 845 846 847 0
-848 325 0
-848 334 0
-849 325 0
-849 334 0
-850 327 0
-850 333 0
-851 327 0
-851 333 0
-852 329 0
-852 330 0
-853 329 0
-853 330 0
-81 848 849 850 851 852 853 0
-854 329 0
-854 333 0
-855 329 0
-855 333 0
-82 854 855 0
-856 326 0
-856 330 0
-857 326 0
-857 330 0
-858 328 0
-858 333 0
-859 328 0
-859 333 0
-83 856 857 858 859 0
-860 326 0
-860 327 0
-861 326 0
-861 327 0
-862 328 0
-862 329 0
-863 328 0
-863 329 0
-864 332 0
-864 334 0
-865 332 0
-865 334 0
-84 860 861 862 863 864 865 0
-866 336 0
-866 353 0
-867 336 0
-867 353 0
-85 866 867 0
-868 335 0
-868 353 0
-869 335 0
-869 353 0
-870 337 0
-870 347 0
-871 337 0
-871 347 0
-872 340 0
-872 346 0
-873 340 0
-873 346 0
-86 868 869 870 871 872 873 0
-874 336 0
-874 347 0
-875 336 0
-875 347 0
-876 338 0
-876 354 0
-877 338 0
-877 354 0
-878 341 0
-878 346 0
-879 341 0
-879 346 0
-87 874 875 876 877 878 879 0
-880 337 0
-880 354 0
-881 337 0
-881 354 0
-882 339 0
-882 357 0
-883 339 0
-883 357 0
-88 880 881 882 883 0
-884 338 0
-884 357 0
-885 338 0
-885 357 0
-89 884 885 0
-886 336 0
-886 346 0
-887 336 0
-887 346 0
-888 341 0
-888 347 0
-889 341 0
-889 347 0
-890 342 0
-890 345 0
-891 342 0
-891 345 0
-90 886 887 888 889 890 891 0
-892 340 0
-892 345 0
-893 340 0
-893 345 0
-894 343 0
-894 350 0
-895 343 0
-895 350 0
-91 892 893 894 895 0
-896 342 0
-896 350 0
-897 342 0
-897 350 0
-92 896 897 0
-93 0
-898 349 0
-898 357 0
-899 349 0
-899 357 0
-900 350 0
-900 355 0
-901 350 0
-901 355 0
-94 898 899 900 901 0
-902 348 0
-902 357 0
-903 348 0
-903 357 0
-904 350 0
-904 356 0
-905 350 0
-905 356 0
-906 352 0
-906 353 0
-907 352 0
-907 353 0
-95 902 903 904 905 906 907 0
-908 352 0
-908 356 0
-909 352 0
-909 356 0
-96 908 909 0
-910 349 0
-910 353 0
-911 349 0
-911 353 0
-912 351 0
-912 356 0
-913 351 0
-913 356 0
-97 910 911 912 913 0
-914 349 0
-914 350 0
-915 349 0
-915 350 0
-916 351 0
-916 352 0
-917 351 0
-917 352 0
-918 355 0
-918 357 0
-919 355 0
-919 357 0
-98 914 915 916 917 918 919 0
-920 359 0
-920 376 0
-921 359 0
-921 376 0
-99 920 921 0
-922 358 0
-922 376 0
-923 358 0
-923 376 0
-924 360 0
-924 370 0
-925 360 0
-925 370 0
-926 363 0
-926 369 0
-927 363 0
-927 369 0
-100 922 923 924 925 926 927 0
-928 359 0
-928 370 0
-929 359 0
-929 370 0
-930 361 0
-930 377 0
-931 361 0
-931 377 0
-932 364 0
-932 369 0
-933 364 0
-933 369 0
-101 928 929 930 931 932 933 0
-934 360 0
-934 377 0
-935 360 0
-935 377 0
-936 362 0
-936 380 0
-937 362 0
-937 380 0
-102 934 935 936 937 0
-938 361 0
-938 380 0
-939 361 0
-939 380 0
-103 938 939 0
-940 359 0
-940 369 0
-941 359 0
-941 369 0
-942 364 0
-942 370 0
-943 364 0
-943 370 0
-944 365 0
-944 368 0
-945 365 0
-945 368 0
-104 940 941 942 943 944 945 0
-946 363 0
-946 368 0
-947 363 0
-947 368 0
-948 366 0
-948 373 0
-949 366 0
-949 373 0
-105 946 947 948 949 0
-950 365 0
-950 373 0
-951 365 0
-951 373 0
-106 950 951 0
-107 0
-952 372 0
-952 380 0
-953 372 0
-953 380 0
-954 373 0
-954 378 0
-955 373 0
-955 378 0
-108 952 953 954 955 0
-956 371 0
-956 380 0
-957 371 0
-957 380 0
-958 373 0
-958 379 0
-959 373 0
-959 379 0
-960 375 0
-960 376 0
-961 375 0
-961 376 0
-109 956 957 958 959 960 961 0
-962 375 0
-962 379 0
-963 375 0
-963 379 0
-110 962 963 0
-964 372 0
-964 376 0
-965 372 0
-965 376 0
-966 374 0
-966 379 0
-967 374 0
-967 379 0
-111 964 965 966 967 0
-968 372 0
-968 373 0
-969 372 0
-969 373 0
-970 374 0
-970 375 0
-971 374 0
-971 375 0
-972 378 0
-972 380 0
-973 378 0
-973 380 0
-112 968 969 970 971 972 973 0
-974 382 0
-974 399 0
-975 382 0
-975 399 0
-113 974 975 0
-976 381 0
-976 399 0
-977 381 0
-977 399 0
-978 383 0
-978 393 0
-979 383 0
-979 393 0
-980 386 0
-980 392 0
-981 386 0
-981 392 0
-114 976 977 978 979 980 981 0
-982 382 0
-982 393 0
-983 382 0
-983 393 0
-984 384 0
-984 400 0
-985 384 0
-985 400 0
-986 387 0
-986 392 0
-987 387 0
-987 392 0
-115 982 983 984 985 986 987 0
-988 383 0
-988 400 0
-989 383 0
-989 400 0
-990 385 0
-990 403 0
-991 385 0
-991 403 0
-116 988 989 990 991 0
-992 384 0
-992 403 0
-993 384 0
-993 403 0
-117 992 993 0
-994 382 0
-994 392 0
-995 382 0
-995 392 0
-996 387 0
-996 393 0
-997 387 0
-997 393 0
-998 388 0
-998 391 0
-999 388 0
-999 391 0
-118 994 995 996 997 998 999 0
-1000 386 0
-1000 391 0
-1001 386 0
-1001 391 0
-1002 389 0
-1002 396 0
-1003 389 0
-1003 396 0
-119 1000 1001 1002 1003 0
-1004 388 0
-1004 396 0
-1005 388 0
-1005 396 0
-120 1004 1005 0
-121 0
-1006 395 0
-1006 403 0
-1007 395 0
-1007 403 0
-1008 396 0
-1008 401 0
-1009 396 0
-1009 401 0
-122 1006 1007 1008 1009 0
-1010 394 0
-1010 403 0
-1011 394 0
-1011 403 0
-1012 396 0
-1012 402 0
-1013 396 0
-1013 402 0
-1014 398 0
-1014 399 0
-1015 398 0
-1015 399 0
-123 1010 1011 1012 1013 1014 1015 0
-1016 398 0
-1016 402 0
-1017 398 0
-1017 402 0
-124 1016 1017 0
-1018 395 0
-1018 399 0
-1019 395 0
-1019 399 0
-1020 397 0
-1020 402 0
-1021 397 0
-1021 402 0
-125 1018 1019 1020 1021 0
-1022 395 0
-1022 396 0
-1023 395 0
-1023 396 0
-1024 397 0
-1024 398 0
-1025 397 0
-1025 398 0
-1026 401 0
-1026 403 0
-1027 401 0
-1027 403 0
-126 1022 1023 1024 1025 1026 1027 0
-1028 405 0
-1028 422 0
-1029 405 0
-1029 422 0
-127 1028 1029 0
-1030 404 0
-1030 422 0
-1031 404 0
-1031 422 0
-1032 406 0
-1032 416 0
-1033 406 0
-1033 416 0
-1034 409 0
-1034 415 0
-1035 409 0
-1035 415 0
-128 1030 1031 1032 1033 1034 1035 0
-1036 405 0
-1036 416 0
-1037 405 0
-1037 416 0
-1038 407 0
-1038 423 0
-1039 407 0
-1039 423 0
-1040 410 0
-1040 415 0
-1041 410 0
-1041 415 0
-129 1036 1037 1038 1039 1040 1041 0
-1042 406 0
-1042 423 0
-1043 406 0
-1043 423 0
-1044 408 0
-1044 426 0
-1045 408 0
-1045 426 0
-130 1042 1043 1044 1045 0
-1046 407 0
-1046 426 0
-1047 407 0
-1047 426 0
-131 1046 1047 0
-1048 405 0
-1048 415 0
-1049 405 0
-1049 415 0
-1050 410 0
-1050 416 0
-1051 410 0
-1051 416 0
-1052 411 0
-1052 414 0
-1053 411 0
-1053 414 0
-132 1048 1049 1050 1051 1052 1053 0
-1054 409 0
-1054 414 0
-1055 409 0
-1055 414 0
-1056 412 0
-1056 419 0
-1057 412 0
-1057 419 0
-133 1054 1055 1056 1057 0
-1058 411 0
-1058 419 0
-1059 411 0
-1059 419 0
-134 1058 1059 0
-135 0
-1060 418 0
-1060 426 0
-1061 418 0
-1061 426 0
-1062 419 0
-1062 424 0
-1063 419 0
-1063 424 0
-136 1060 1061 1062 1063 0
-1064 417 0
-1064 426 0
-1065 417 0
-1065 426 0
-1066 419 0
-1066 425 0
-1067 419 0
-1067 425 0
-1068 421 0
-1068 422 0
-1069 421 0
-1069 422 0
-137 1064 1065 1066 1067 1068 1069 0
-1070 421 0
-1070 425 0
-1071 421 0
-1071 425 0
-138 1070 1071 0
-1072 418 0
-1072 422 0
-1073 418 0
-1073 422 0
-1074 420 0
-1074 425 0
-1075 420 0
-1075 425 0
-139 1072 1073 1074 1075 0
-1076 418 0
-1076 419 0
-1077 418 0
-1077 419 0
-1078 420 0
-1078 421 0
-1079 420 0
-1079 421 0
-1080 424 0
-1080 426 0
-1081 424 0
-1081 426 0
-140 1076 1077 1078 1079 1080 1081 0
-1082 428 0
-1082 445 0
-1083 428 0
-1083 445 0
-141 1082 1083 0
-1084 427 0
-1084 445 0
-1085 427 0
-1085 445 0
-1086 429 0
-1086 439 0
-1087 429 0
-1087 439 0
-1088 432 0
-1088 438 0
-1089 432 0
-1089 438 0
-142 1084 1085 1086 1087 1088 1089 0
-1090 428 0
-1090 439 0
-1091 428 0
-1091 439 0
-1092 430 0
-1092 446 0
-1093 430 0
-1093 446 0
-1094 433 0
-1094 438 0
-1095 433 0
-1095 438 0
-143 1090 1091 1092 1093 1094 1095 0
-1096 429 0
-1096 446 0
-1097 429 0
-1097 446 0
-1098 431 0
-1098 449 0
-1099 431 0
-1099 449 0
-144 1096 1097 1098 1099 0
-1100 430 0
-1100 449 0
-1101 430 0
-1101 449 0
-145 1100 1101 0
-1102 428 0
-1102 438 0
-1103 428 0
-1103 438 0
-1104 433 0
-1104 439 0
-1105 433 0
-1105 439 0
-1106 434 0
-1106 437 0
-1107 434 0
-1107 437 0
-146 1102 1103 1104 1105 1106 1107 0
-1108 432 0
-1108 437 0
-1109 432 0
-1109 437 0
-1110 435 0
-1110 442 0
-1111 435 0
-1111 442 0
-147 1108 1109 1110 1111 0
-1112 434 0
-1112 442 0
-1113 434 0
-1113 442 0
-148 1112 1113 0
-149 0
-1114 441 0
-1114 449 0
-1115 441 0
-1115 449 0
-1116 442 0
-1116 447 0
-1117 442 0
-1117 447 0
-150 1114 1115 1116 1117 0
-1118 440 0
-1118 449 0
-1119 440 0
-1119 449 0
-1120 442 0
-1120 448 0
-1121 442 0
-1121 448 0
-1122 444 0
-1122 445 0
-1123 444 0
-1123 445 0
-151 1118 1119 1120 1121 1122 1123 0
-1124 444 0
-1124 448 0
-1125 444 0
-1125 448 0
-152 1124 1125 0
-1126 441 0
-1126 445 0
-1127 441 0
-1127 445 0
-1128 443 0
-1128 448 0
-1129 443 0
-1129 448 0
-153 1126 1127 1128 1129 0
-1130 441 0
-1130 442 0
-1131 441 0
-1131 442 0
-1132 443 0
-1132 444 0
-1133 443 0
-1133 444 0
-1134 447 0
-1134 449 0
-1135 447 0
-1135 449 0
-154 1130 1131 1132 1133 1134 1135 0
-1136 451 0
-1136 468 0
-1137 451 0
-1137 468 0
-155 1136 1137 0
-1138 450 0
-1138 468 0
-1139 450 0
-1139 468 0
-1140 452 0
-1140 462 0
-1141 452 0
-1141 462 0
-1142 455 0
-1142 461 0
-1143 455 0
-1143 461 0
-156 1138 1139 1140 1141 1142 1143 0
-1144 451 0
-1144 462 0
-1145 451 0
-1145 462 0
-1146 453 0
-1146 469 0
-1147 453 0
-1147 469 0
-1148 456 0
-1148 461 0
-1149 456 0
-1149 461 0
-157 1144 1145 1146 1147 1148 1149 0
-1150 452 0
-1150 469 0
-1151 452 0
-1151 469 0
-1152 454 0
-1152 472 0
-1153 454 0
-1153 472 0
-158 1150 1151 1152 1153 0
-1154 453 0
-1154 472 0
-1155 453 0
-1155 472 0
-159 1154 1155 0
-1156 451 0
-1156 461 0
-1157 451 0
-1157 461 0
-1158 456 0
-1158 462 0
-1159 456 0
-1159 462 0
-1160 457 0
-1160 460 0
-1161 457 0
-1161 460 0
-160 1156 1157 1158 1159 1160 1161 0
-1162 455 0
-1162 460 0
-1163 455 0
-1163 460 0
-1164 458 0
-1164 465 0
-1165 458 0
-1165 465 0
-161 1162 1163 1164 1165 0
-1166 457 0
-1166 465 0
-1167 457 0
-1167 465 0
-162 1166 1167 0
-163 0
-1168 464 0
-1168 472 0
-1169 464 0
-1169 472 0
-1170 465 0
-1170 470 0
-1171 465 0
-1171 470 0
-164 1168 1169 1170 1171 0
-1172 463 0
-1172 472 0
-1173 463 0
-1173 472 0
-1174 465 0
-1174 471 0
-1175 465 0
-1175 471 0
-1176 467 0
-1176 468 0
-1177 467 0
-1177 468 0
-165 1172 1173 1174 1175 1176 1177 0
-1178 467 0
-1178 471 0
-1179 467 0
-1179 471 0
-166 1178 1179 0
-1180 464 0
-1180 468 0
-1181 464 0
-1181 468 0
-1182 466 0
-1182 471 0
-1183 466 0
-1183 471 0
-167 1180 1181 1182 1183 0
-1184 464 0
-1184 465 0
-1185 464 0
-1185 465 0
-1186 466 0
-1186 467 0
-1187 466 0
-1187 467 0
-1188 470 0
-1188 472 0
-1189 470 0
-1189 472 0
-168 1184 1185 1186 1187 1188 1189 0
-1190 474 0
-1190 491 0
-1191 474 0
-1191 491 0
-169 1190 1191 0
-1192 473 0
-1192 491 0
-1193 473 0
-1193 491 0
-1194 475 0
-1194 485 0
-1195 475 0
-1195 485 0
-1196 478 0
-1196 484 0
-1197 478 0
-1197 484 0
-170 1192 1193 1194 1195 1196 1197 0
-1198 474 0
-1198 485 0
-1199 474 0
-1199 485 0
-1200 476 0
-1200 492 0
-1201 476 0
-1201 492 0
-1202 479 0
-1202 484 0
-1203 479 0
-1203 484 0
-171 1198 1199 1200 1201 1202 1203 0
-1204 475 0
-1204 492 0
-1205 475 0
-1205 492 0
-1206 477 0
-1206 495 0
-1207 477 0
-1207 495 0
-172 1204 1205 1206 1207 0
-1208 476 0
-1208 495 0
-1209 476 0
-1209 495 0
-173 1208 1209 0
-1210 474 0
-1210 484 0
-1211 474 0
-1211 484 0
-1212 479 0
-1212 485 0
-1213 479 0
-1213 485 0
-1214 480 0
-1214 483 0
-1215 480 0
-1215 483 0
-174 1210 1211 1212 1213 1214 1215 0
-1216 478 0
-1216 483 0
-1217 478 0
-1217 483 0
-1218 481 0
-1218 488 0
-1219 481 0
-1219 488 0
-175 1216 1217 1218 1219 0
-1220 480 0
-1220 488 0
-1221 480 0
-1221 488 0
-176 1220 1221 0
-177 0
-1222 487 0
-1222 495 0
-1223 487 0
-1223 495 0
-1224 488 0
-1224 493 0
-1225 488 0
-1225 493 0
-178 1222 1223 1224 1225 0
-1226 486 0
-1226 495 0
-1227 486 0
-1227 495 0
-1228 488 0
-1228 494 0
-1229 488 0
-1229 494 0
-1230 490 0
-1230 491 0
-1231 490 0
-1231 491 0
-179 1226 1227 1228 1229 1230 1231 0
-1232 490 0
-1232 494 0
-1233 490 0
-1233 494 0
-180 1232 1233 0
-1234 487 0
-1234 491 0
-1235 487 0
-1235 491 0
-1236 489 0
-1236 494 0
-1237 489 0
-1237 494 0
-181 1234 1235 1236 1237 0
-1238 487 0
-1238 488 0
-1239 487 0
-1239 488 0
-1240 489 0
-1240 490 0
-1241 489 0
-1241 490 0
-1242 493 0
-1242 495 0
-1243 493 0
-1243 495 0
-182 1238 1239 1240 1241 1242 1243 0
-1244 497 0
-1244 514 0
-1245 497 0
-1245 514 0
-183 1244 1245 0
-1246 496 0
-1246 514 0
-1247 496 0
-1247 514 0
-1248 498 0
-1248 508 0
-1249 498 0
-1249 508 0
-1250 501 0
-1250 507 0
-1251 501 0
-1251 507 0
-184 1246 1247 1248 1249 1250 1251 0
-1252 497 0
-1252 508 0
-1253 497 0
-1253 508 0
-1254 499 0
-1254 515 0
-1255 499 0
-1255 515 0
-1256 502 0
-1256 507 0
-1257 502 0
-1257 507 0
-185 1252 1253 1254 1255 1256 1257 0
-1258 498 0
-1258 515 0
-1259 498 0
-1259 515 0
-1260 500 0
-1260 518 0
-1261 500 0
-1261 518 0
-186 1258 1259 1260 1261 0
-1262 499 0
-1262 518 0
-1263 499 0
-1263 518 0
-187 1262 1263 0
-1264 497 0
-1264 507 0
-1265 497 0
-1265 507 0
-1266 502 0
-1266 508 0
-1267 502 0
-1267 508 0
-1268 503 0
-1268 506 0
-1269 503 0
-1269 506 0
-188 1264 1265 1266 1267 1268 1269 0
-1270 501 0
-1270 506 0
-1271 501 0
-1271 506 0
-1272 504 0
-1272 511 0
-1273 504 0
-1273 511 0
-189 1270 1271 1272 1273 0
-1274 503 0
-1274 511 0
-1275 503 0
-1275 511 0
-190 1274 1275 0
-191 0
-1276 510 0
-1276 518 0
-1277 510 0
-1277 518 0
-1278 511 0
-1278 516 0
-1279 511 0
-1279 516 0
-192 1276 1277 1278 1279 0
-1280 509 0
-1280 518 0
-1281 509 0
-1281 518 0
-1282 511 0
-1282 517 0
-1283 511 0
-1283 517 0
-1284 513 0
-1284 514 0
-1285 513 0
-1285 514 0
-193 1280 1281 1282 1283 1284 1285 0
-1286 513 0
-1286 517 0
-1287 513 0
-1287 517 0
-194 1286 1287 0
-1288 510 0
-1288 514 0
-1289 510 0
-1289 514 0
-1290 512 0
-1290 517 0
-1291 512 0
-1291 517 0
-195 1288 1289 1290 1291 0
-1292 510 0
-1292 511 0
-1293 510 0
-1293 511 0
-1294 512 0
-1294 513 0
-1295 512 0
-1295 513 0
-1296 516 0
-1296 518 0
-1297 516 0
-1297 518 0
-196 1292 1293 1294 1295 1296 1297 0
