p cnf 1255 3257
-1 -2 0
-1 -3 0
-1 -4 0
-1 -5 0
-1 -6 0
-1 -7 0
-1 -8 0
-1 -9 0
-1 -10 0
-1 -11 0
-1 -12 0
-1 -13 0
-1 -14 0
-2 -3 0
-2 -4 0
-2 -5 0
-2 -6 0
-2 -7 0
-2 -8 0
-2 -9 0
-2 -10 0
-2 -11 0
-2 -12 0
-2 -13 0
-2 -14 0
-3 -4 0
-3 -5 0
-3 -6 0
-3 -7 0
-3 -8 0
-3 -9 0
-3 -10 0
-3 -11 0
-3 -12 0
-3 -13 0
-3 -14 0
-4 -5 0
-4 -6 0
-4 -7 0
-4 -8 0
-4 -9 0
-4 -10 0
-4 -11 0
-4 -12 0
-4 -13 0
-4 -14 0
-5 -6 0
-5 -7 0
-5 -8 0
-5 -9 0
-5 -10 0
-5 -11 0
-5 -12 0
-5 -13 0
-5 -14 0
-6 -7 0
-6 -8 0
-6 -9 0
-6 -10 0
-6 -11 0
-6 -12 0
-6 -13 0
-6 -14 0
-7 -8 0
-7 -9 0
-7 -10 0
-7 -11 0
-7 -12 0
-7 -13 0
-7 -14 0
-8 -9 0
-8 -10 0
-8 -11 0
-8 -12 0
-8 -13 0
-8 -14 0
-9 -10 0
-9 -11 0
-9 -12 0
-9 -13 0
-9 -14 0
-10 -11 0
-10 -12 0
-10 -13 0
-10 -14 0
-11 -12 0
-11 -13 0
-11 -14 0
-12 -13 0
-12 -14 0
-13 -14 0
-220 197 1 0
-221 198 2 0
-222 199 3 0
-223 200 4 0
-224 201 5 0
-225 202 6 0
-226 203 7 0
-227 204 0
-228 205 8 0
-229 206 9 0
-230 207 10 0
-231 208 0
-232 209 0
-233 210 0
-234 211 11 0
-235 212 12 0
-236 213 0
-237 214 13 0
-238 215 0
-239 216 0
-240 217 0
-241 218 14 0
-242 219 0
-15 -16 0
-15 -17 0
-15 -18 0
-15 -19 0
-15 -20 0
-15 -21 0
-15 -22 0
-15 -23 0
-15 -24 0
-15 -25 0
-15 -26 0
-15 -27 0
-15 -28 0
-16 -17 0
-16 -18 0
-16 -19 0
-16 -20 0
-16 -21 0
-16 -22 0
-16 -23 0
-16 -24 0
-16 -25 0
-16 -26 0
-16 -27 0
-16 -28 0
-17 -18 0
-17 -19 0
-17 -20 0
-17 -21 0
-17 -22 0
-17 -23 0
-17 -24 0
-17 -25 0
-17 -26 0
-17 -27 0
-17 -28 0
-18 -19 0
-18 -20 0
-18 -21 0
-18 -22 0
-18 -23 0
-18 -24 0
-18 -25 0
-18 -26 0
-18 -27 0
-18 -28 0
-19 -20 0
-19 -21 0
-19 -22 0
-19 -23 0
-19 -24 0
-19 -25 0
-19 -26 0
-19 -27 0
-19 -28 0
-20 -21 0
-20 -22 0
-20 -23 0
-20 -24 0
-20 -25 0
-20 -26 0
-20 -27 0
-20 -28 0
-21 -22 0
-21 -23 0
-21 -24 0
-21 -25 0
-21 -26 0
-21 -27 0
-21 -28 0
-22 -23 0
-22 -24 0
-22 -25 0
-22 -26 0
-22 -27 0
-22 -28 0
-23 -24 0
-23 -25 0
-23 -26 0
-23 -27 0
-23 -28 0
-24 -25 0
-24 -26 0
-24 -27 0
-24 -28 0
-25 -26 0
-25 -27 0
-25 -28 0
-26 -27 0
-26 -28 0
-27 -28 0
-243 220 15 0
-244 221 16 0
-245 222 17 0
-246 223 18 0
-247 224 19 0
-248 225 20 0
-249 226 21 0
-250 227 0
-251 228 22 0
-252 229 23 0
-253 230 24 0
-254 231 0
-255 232 0
-256 233 0
-257 234 25 0
-258 235 26 0
-259 236 0
-260 237 27 0
-261 238 0
-262 239 0
-263 240 0
-264 241 28 0
-265 242 0
-29 -30 0
-29 -31 0
-29 -32 0
-29 -33 0
-29 -34 0
-29 -35 0
-29 -36 0
-29 -37 0
-29 -38 0
-29 -39 0
-29 -40 0
-29 -41 0
-29 -42 0
-30 -31 0
-30 -32 0
-30 -33 0
-30 -34 0
-30 -35 0
-30 -36 0
-30 -37 0
-30 -38 0
-30 -39 0
-30 -40 0
-30 -41 0
-30 -42 0
-31 -32 0
-31 -33 0
-31 -34 0
-31 -35 0
-31 -36 0
-31 -37 0
-31 -38 0
-31 -39 0
-31 -40 0
-31 -41 0
-31 -42 0
-32 -33 0
-32 -34 0
-32 -35 0
-32 -36 0
-32 -37 0
-32 -38 0
-32 -39 0
-32 -40 0
-32 -41 0
-32 -42 0
-33 -34 0
-33 -35 0
-33 -36 0
-33 -37 0
-33 -38 0
-33 -39 0
-33 -40 0
-33 -41 0
-33 -42 0
-34 -35 0
-34 -36 0
-34 -37 0
-34 -38 0
-34 -39 0
-34 -40 0
-34 -41 0
-34 -42 0
-35 -36 0
-35 -37 0
-35 -38 0
-35 -39 0
-35 -40 0
-35 -41 0
-35 -42 0
-36 -37 0
-36 -38 0
-36 -39 0
-36 -40 0
-36 -41 0
-36 -42 0
-37 -38 0
-37 -39 0
-37 -40 0
-37 -41 0
-37 -42 0
-38 -39 0
-38 -40 0
-38 -41 0
-38 -42 0
-39 -40 0
-39 -41 0
-39 -42 0
-40 -41 0
-40 -42 0
-41 -42 0
-266 243 29 0
-267 244 30 0
-268 245 31 0
-269 246 32 0
-270 247 33 0
-271 248 34 0
-272 249 35 0
-273 250 0
-274 251 36 0
-275 252 37 0
-276 253 38 0
-277 254 0
-278 255 0
-279 256 0
-280 257 39 0
-281 258 40 0
-282 259 0
-283 260 41 0
-284 261 0
-285 262 0
-286 263 0
-287 264 42 0
-288 265 0
-43 -44 0
-43 -45 0
-43 -46 0
-43 -47 0
-43 -48 0
-43 -49 0
-43 -50 0
-43 -51 0
-43 -52 0
-43 -53 0
-43 -54 0
-43 -55 0
-43 -56 0
-44 -45 0
-44 -46 0
-44 -47 0
-44 -48 0
-44 -49 0
-44 -50 0
-44 -51 0
-44 -52 0
-44 -53 0
-44 -54 0
-44 -55 0
-44 -56 0
-45 -46 0
-45 -47 0
-45 -48 0
-45 -49 0
-45 -50 0
-45 -51 0
-45 -52 0
-45 -53 0
-45 -54 0
-45 -55 0
-45 -56 0
-46 -47 0
-46 -48 0
-46 -49 0
-46 -50 0
-46 -51 0
-46 -52 0
-46 -53 0
-46 -54 0
-46 -55 0
-46 -56 0
-47 -48 0
-47 -49 0
-47 -50 0
-47 -51 0
-47 -52 0
-47 -53 0
-47 -54 0
-47 -55 0
-47 -56 0
-48 -49 0
-48 -50 0
-48 -51 0
-48 -52 0
-48 -53 0
-48 -54 0
-48 -55 0
-48 -56 0
-49 -50 0
-49 -51 0
-49 -52 0
-49 -53 0
-49 -54 0
-49 -55 0
-49 -56 0
-50 -51 0
-50 -52 0
-50 -53 0
-50 -54 0
-50 -55 0
-50 -56 0
-51 -52 0
-51 -53 0
-51 -54 0
-51 -55 0
-51 -56 0
-52 -53 0
-52 -54 0
-52 -55 0
-52 -56 0
-53 -54 0
-53 -55 0
-53 -56 0
-54 -55 0
-54 -56 0
-55 -56 0
-289 266 43 0
-290 267 44 0
-291 268 45 0
-292 269 46 0
-293 270 47 0
-294 271 48 0
-295 272 49 0
-296 273 0
-297 274 50 0
-298 275 51 0
-299 276 52 0
-300 277 0
-301 278 0
-302 279 0
-303 280 53 0
-304 281 54 0
-305 282 0
-306 283 55 0
-307 284 0
-308 285 0
-309 286 0
-310 287 56 0
-311 288 0
-57 -58 0
-57 -59 0
-57 -60 0
-57 -61 0
-57 -62 0
-57 -63 0
-57 -64 0
-57 -65 0
-57 -66 0
-57 -67 0
-57 -68 0
-57 -69 0
-57 -70 0
-58 -59 0
-58 -60 0
-58 -61 0
-58 -62 0
-58 -63 0
-58 -64 0
-58 -65 0
-58 -66 0
-58 -67 0
-58 -68 0
-58 -69 0
-58 -70 0
-59 -60 0
-59 -61 0
-59 -62 0
-59 -63 0
-59 -64 0
-59 -65 0
-59 -66 0
-59 -67 0
-59 -68 0
-59 -69 0
-59 -70 0
-60 -61 0
-60 -62 0
-60 -63 0
-60 -64 0
-60 -65 0
-60 -66 0
-60 -67 0
-60 -68 0
-60 -69 0
-60 -70 0
-61 -62 0
-61 -63 0
-61 -64 0
-61 -65 0
-61 -66 0
-61 -67 0
-61 -68 0
-61 -69 0
-61 -70 0
-62 -63 0
-62 -64 0
-62 -65 0
-62 -66 0
-62 -67 0
-62 -68 0
-62 -69 0
-62 -70 0
-63 -64 0
-63 -65 0
-63 -66 0
-63 -67 0
-63 -68 0
-63 -69 0
-63 -70 0
-64 -65 0
-64 -66 0
-64 -67 0
-64 -68 0
-64 -69 0
-64 -70 0
-65 -66 0
-65 -67 0
-65 -68 0
-65 -69 0
-65 -70 0
-66 -67 0
-66 -68 0
-66 -69 0
-66 -70 0
-67 -68 0
-67 -69 0
-67 -70 0
-68 -69 0
-68 -70 0
-69 -70 0
-312 289 57 0
-313 290 58 0
-314 291 59 0
-315 292 60 0
-316 293 61 0
-317 294 62 0
-318 295 63 0
-319 296 0
-320 297 64 0
-321 298 65 0
-322 299 66 0
-323 300 0
-324 301 0
-325 302 0
-326 303 67 0
-327 304 68 0
-328 305 0
-329 306 69 0
-330 307 0
-331 308 0
-332 309 0
-333 310 70 0
-334 311 0
-71 -72 0
-71 -73 0
-71 -74 0
-71 -75 0
-71 -76 0
-71 -77 0
-71 -78 0
-71 -79 0
-71 -80 0
-71 -81 0
-71 -82 0
-71 -83 0
-71 -84 0
-72 -73 0
-72 -74 0
-72 -75 0
-72 -76 0
-72 -77 0
-72 -78 0
-72 -79 0
-72 -80 0
-72 -81 0
-72 -82 0
-72 -83 0
-72 -84 0
-73 -74 0
-73 -75 0
-73 -76 0
-73 -77 0
-73 -78 0
-73 -79 0
-73 -80 0
-73 -81 0
-73 -82 0
-73 -83 0
-73 -84 0
-74 -75 0
-74 -76 0
-74 -77 0
-74 -78 0
-74 -79 0
-74 -80 0
-74 -81 0
-74 -82 0
-74 -83 0
-74 -84 0
-75 -76 0
-75 -77 0
-75 -78 0
-75 -79 0
-75 -80 0
-75 -81 0
-75 -82 0
-75 -83 0
-75 -84 0
-76 -77 0
-76 -78 0
-76 -79 0
-76 -80 0
-76 -81 0
-76 -82 0
-76 -83 0
-76 -84 0
-77 -78 0
-77 -79 0
-77 -80 0
-77 -81 0
-77 -82 0
-77 -83 0
-77 -84 0
-78 -79 0
-78 -80 0
-78 -81 0
-78 -82 0
-78 -83 0
-78 -84 0
-79 -80 0
-79 -81 0
-79 -82 0
-79 -83 0
-79 -84 0
-80 -81 0
-80 -82 0
-80 -83 0
-80 -84 0
-81 -82 0
-81 -83 0
-81 -84 0
-82 -83 0
-82 -84 0
-83 -84 0
-335 312 71 0
-336 313 72 0
-337 314 73 0
-338 315 74 0
-339 316 75 0
-340 317 76 0
-341 318 77 0
-342 319 0
-343 320 78 0
-344 321 79 0
-345 322 80 0
-346 323 0
-347 324 0
-348 325 0
-349 326 81 0
-350 327 82 0
-351 328 0
-352 329 83 0
-353 330 0
-354 331 0
-355 332 0
-356 333 84 0
-357 334 0
-85 -86 0
-85 -87 0
-85 -88 0
-85 -89 0
-85 -90 0
-85 -91 0
-85 -92 0
-85 -93 0
-85 -94 0
-85 -95 0
-85 -96 0
-85 -97 0
-85 -98 0
-86 -87 0
-86 -88 0
-86 -89 0
-86 -90 0
-86 -91 0
-86 -92 0
-86 -93 0
-86 -94 0
-86 -95 0
-86 -96 0
-86 -97 0
-86 -98 0
-87 -88 0
-87 -89 0
-87 -90 0
-87 -91 0
-87 -92 0
-87 -93 0
-87 -94 0
-87 -95 0
-87 -96 0
-87 -97 0
-87 -98 0
-88 -89 0
-88 -90 0
-88 -91 0
-88 -92 0
-88 -93 0
-88 -94 0
-88 -95 0
-88 -96 0
-88 -97 0
-88 -98 0
-89 -90 0
-89 -91 0
-89 -92 0
-89 -93 0
-89 -94 0
-89 -95 0
-89 -96 0
-89 -97 0
-89 -98 0
-90 -91 0
-90 -92 0
-90 -93 0
-90 -94 0
-90 -95 0
-90 -96 0
-90 -97 0
-90 -98 0
-91 -92 0
-91 -93 0
-91 -94 0
-91 -95 0
-91 -96 0
-91 -97 0
-91 -98 0
-92 -93 0
-92 -94 0
-92 -95 0
-92 -96 0
-92 -97 0
-92 -98 0
-93 -94 0
-93 -95 0
-93 -96 0
-93 -97 0
-93 -98 0
-94 -95 0
-94 -96 0
-94 -97 0
-94 -98 0
-95 -96 0
-95 -97 0
-95 -98 0
-96 -97 0
-96 -98 0
-97 -98 0
-358 335 85 0
-359 336 86 0
-360 337 87 0
-361 338 88 0
-362 339 89 0
-363 340 90 0
-364 341 91 0
-365 342 0
-366 343 92 0
-367 344 93 0
-368 345 94 0
-369 346 0
-370 347 0
-371 348 0
-372 349 95 0
-373 350 96 0
-374 351 0
-375 352 97 0
-376 353 0
-377 354 0
-378 355 0
-379 356 98 0
-380 357 0
-99 -100 0
-99 -101 0
-99 -102 0
-99 -103 0
-99 -104 0
-99 -105 0
-99 -106 0
-99 -107 0
-99 -108 0
-99 -109 0
-99 -110 0
-99 -111 0
-99 -112 0
-100 -101 0
-100 -102 0
-100 -103 0
-100 -104 0
-100 -105 0
-100 -106 0
-100 -107 0
-100 -108 0
-100 -109 0
-100 -110 0
-100 -111 0
-100 -112 0
-101 -102 0
-101 -103 0
-101 -104 0
-101 -105 0
-101 -106 0
-101 -107 0
-101 -108 0
-101 -109 0
-101 -110 0
-101 -111 0
-101 -112 0
-102 -103 0
-102 -104 0
-102 -105 0
-102 -106 0
-102 -107 0
-102 -108 0
-102 -109 0
-102 -110 0
-102 -111 0
-102 -112 0
-103 -104 0
-103 -105 0
-103 -106 0
-103 -107 0
-103 -108 0
-103 -109 0
-103 -110 0
-103 -111 0
-103 -112 0
-104 -105 0
-104 -106 0
-104 -107 0
-104 -108 0
-104 -109 0
-104 -110 0
-104 -111 0
-104 -112 0
-105 -106 0
-105 -107 0
-105 -108 0
-105 -109 0
-105 -110 0
-105 -111 0
-105 -112 0
-106 -107 0
-106 -108 0
-106 -109 0
-106 -110 0
-106 -111 0
-106 -112 0
-107 -108 0
-107 -109 0
-107 -110 0
-107 -111 0
-107 -112 0
-108 -109 0
-108 -110 0
-108 -111 0
-108 -112 0
-109 -110 0
-109 -111 0
-109 -112 0
-110 -111 0
-110 -112 0
-111 -112 0
-381 358 99 0
-382 359 100 0
-383 360 101 0
-384 361 102 0
-385 362 103 0
-386 363 104 0
-387 364 105 0
-388 365 0
-389 366 106 0
-390 367 107 0
-391 368 108 0
-392 369 0
-393 370 0
-394 371 0
-395 372 109 0
-396 373 110 0
-397 374 0
-398 375 111 0
-399 376 0
-400 377 0
-401 378 0
-402 379 112 0
-403 380 0
-113 -114 0
-113 -115 0
-113 -116 0
-113 -117 0
-113 -118 0
-113 -119 0
-113 -120 0
-113 -121 0
-113 -122 0
-113 -123 0
-113 -124 0
-113 -125 0
-113 -126 0
-114 -115 0
-114 -116 0
-114 -117 0
-114 -118 0
-114 -119 0
-114 -120 0
-114 -121 0
-114 -122 0
-114 -123 0
-114 -124 0
-114 -125 0
-114 -126 0
-115 -116 0
-115 -117 0
-115 -118 0
-115 -119 0
-115 -120 0
-115 -121 0
-115 -122 0
-115 -123 0
-115 -124 0
-115 -125 0
-115 -126 0
-116 -117 0
-116 -118 0
-116 -119 0
-116 -120 0
-116 -121 0
-116 -122 0
-116 -123 0
-116 -124 0
-116 -125 0
-116 -126 0
-117 -118 0
-117 -119 0
-117 -120 0
-117 -121 0
-117 -122 0
-117 -123 0
-117 -124 0
-117 -125 0
-117 -126 0
-118 -119 0
-118 -120 0
-118 -121 0
-118 -122 0
-118 -123 0
-118 -124 0
-118 -125 0
-118 -126 0
-119 -120 0
-119 -121 0
-119 -122 0
-119 -123 0
-119 -124 0
-119 -125 0
-119 -126 0
-120 -121 0
-120 -122 0
-120 -123 0
-120 -124 0
-120 -125 0
-120 -126 0
-121 -122 0
-121 -123 0
-121 -124 0
-121 -125 0
-121 -126 0
-122 -123 0
-122 -124 0
-122 -125 0
-122 -126 0
-123 -124 0
-123 -125 0
-123 -126 0
-124 -125 0
-124 -126 0
-125 -126 0
-404 381 113 0
-405 382 114 0
-406 383 115 0
-407 384 116 0
-408 385 117 0
-409 386 118 0
-410 387 119 0
-411 388 0
-412 389 120 0
-413 390 121 0
-414 391 122 0
-415 392 0
-416 393 0
-417 394 0
-418 395 123 0
-419 396 124 0
-420 397 0
-421 398 125 0
-422 399 0
-423 400 0
-424 401 0
-425 402 126 0
-426 403 0
-127 -128 0
-127 -129 0
-127 -130 0
-127 -131 0
-127 -132 0
-127 -133 0
-127 -134 0
-127 -135 0
-127 -136 0
-127 -137 0
-127 -138 0
-127 -139 0
-127 -140 0
-128 -129 0
-128 -130 0
-128 -131 0
-128 -132 0
-128 -133 0
-128 -134 0
-128 -135 0
-128 -136 0
-128 -137 0
-128 -138 0
-128 -139 0
-128 -140 0
-129 -130 0
-129 -131 0
-129 -132 0
-129 -133 0
-129 -134 0
-129 -135 0
-129 -136 0
-129 -137 0
-129 -138 0
-129 -139 0
-129 -140 0
-130 -131 0
-130 -132 0
-130 -133 0
-130 -134 0
-130 -135 0
-130 -136 0
-130 -137 0
-130 -138 0
-130 -139 0
-130 -140 0
-131 -132 0
-131 -133 0
-131 -134 0
-131 -135 0
-131 -136 0
-131 -137 0
-131 -138 0
-131 -139 0
-131 -140 0
-132 -133 0
-132 -134 0
-132 -135 0
-132 -136 0
-132 -137 0
-132 -138 0
-132 -139 0
-132 -140 0
-133 -134 0
-133 -135 0
-133 -136 0
-133 -137 0
-133 -138 0
-133 -139 0
-133 -140 0
-134 -135 0
-134 -136 0
-134 -137 0
-134 -138 0
-134 -139 0
-134 -140 0
-135 -136 0
-135 -137 0
-135 -138 0
-135 -139 0
-135 -140 0
-136 -137 0
-136 -138 0
-136 -139 0
-136 -140 0
-137 -138 0
-137 -139 0
-137 -140 0
-138 -139 0
-138 -140 0
-139 -140 0
-427 404 127 0
-428 405 128 0
-429 406 129 0
-430 407 130 0
-431 408 131 0
-432 409 132 0
-433 410 133 0
-434 411 0
-435 412 134 0
-436 413 135 0
-437 414 136 0
-438 415 0
-439 416 0
-440 417 0
-441 418 137 0
-442 419 138 0
-443 420 0
-444 421 139 0
-445 422 0
-446 423 0
-447 424 0
-448 425 140 0
-449 426 0
-141 -142 0
-141 -143 0
-141 -144 0
-141 -145 0
-141 -146 0
-141 -147 0
-141 -148 0
-141 -149 0
-141 -150 0
-141 -151 0
-141 -152 0
-141 -153 0
-141 -154 0
-142 -143 0
-142 -144 0
-142 -145 0
-142 -146 0
-142 -147 0
-142 -148 0
-142 -149 0
-142 -150 0
-142 -151 0
-142 -152 0
-142 -153 0
-142 -154 0
-143 -144 0
-143 -145 0
-143 -146 0
-143 -147 0
-143 -148 0
-143 -149 0
-143 -150 0
-143 -151 0
-143 -152 0
-143 -153 0
-143 -154 0
-144 -145 0
-144 -146 0
-144 -147 0
-144 -148 0
-144 -149 0
-144 -150 0
-144 -151 0
-144 -152 0
-144 -153 0
-144 -154 0
-145 -146 0
-145 -147 0
-145 -148 0
-145 -149 0
-145 -150 0
-145 -151 0
-145 -152 0
-145 -153 0
-145 -154 0
-146 -147 0
-146 -148 0
-146 -149 0
-146 -150 0
-146 -151 0
-146 -152 0
-146 -153 0
-146 -154 0
-147 -148 0
-147 -149 0
-147 -150 0
-147 -151 0
-147 -152 0
-147 -153 0
-147 -154 0
-148 -149 0
-148 -150 0
-148 -151 0
-148 -152 0
-148 -153 0
-148 -154 0
-149 -150 0
-149 -151 0
-149 -152 0
-149 -153 0
-149 -154 0
-150 -151 0
-150 -152 0
-150 -153 0
-150 -154 0
-151 -152 0
-151 -153 0
-151 -154 0
-152 -153 0
-152 -154 0
-153 -154 0
-450 427 141 0
-451 428 142 0
-452 429 143 0
-453 430 144 0
-454 431 145 0
-455 432 146 0
-456 433 147 0
-457 434 0
-458 435 148 0
-459 436 149 0
-460 437 150 0
-461 438 0
-462 439 0
-463 440 0
-464 441 151 0
-465 442 152 0
-466 443 0
-467 444 153 0
-468 445 0
-469 446 0
-470 447 0
-471 448 154 0
-472 449 0
-155 -156 0
-155 -157 0
-155 -158 0
-155 -159 0
-155 -160 0
-155 -161 0
-155 -162 0
-155 -163 0
-155 -164 0
-155 -165 0
-155 -166 0
-155 -167 0
-155 -168 0
-156 -157 0
-156 -158 0
-156 -159 0
-156 -160 0
-156 -161 0
-156 -162 0
-156 -163 0
-156 -164 0
-156 -165 0
-156 -166 0
-156 -167 0
-156 -168 0
-157 -158 0
-157 -159 0
-157 -160 0
-157 -161 0
-157 -162 0
-157 -163 0
-157 -164 0
-157 -165 0
-157 -166 0
-157 -167 0
-157 -168 0
-158 -159 0
-158 -160 0
-158 -161 0
-158 -162 0
-158 -163 0
-158 -164 0
-158 -165 0
-158 -166 0
-158 -167 0
-158 -168 0
-159 -160 0
-159 -161 0
-159 -162 0
-159 -163 0
-159 -164 0
-159 -165 0
-159 -166 0
-159 -167 0
-159 -168 0
-160 -161 0
-160 -162 0
-160 -163 0
-160 -164 0
-160 -165 0
-160 -166 0
-160 -167 0
-160 -168 0
-161 -162 0
-161 -163 0
-161 -164 0
-161 -165 0
-161 -166 0
-161 -167 0
-161 -168 0
-162 -163 0
-162 -164 0
-162 -165 0
-162 -166 0
-162 -167 0
-162 -168 0
-163 -164 0
-163 -165 0
-163 -166 0
-163 -167 0
-163 -168 0
-164 -165 0
-164 -166 0
-164 -167 0
-164 -168 0
-165 -166 0
-165 -167 0
-165 -168 0
-166 -167 0
-166 -168 0
-167 -168 0
-473 450 155 0
-474 451 156 0
-475 452 157 0
-476 453 158 0
-477 454 159 0
-478 455 160 0
-479 456 161 0
-480 457 0
-481 458 162 0
-482 459 163 0
-483 460 164 0
-484 461 0
-485 462 0
-486 463 0
-487 464 165 0
-488 465 166 0
-489 466 0
-490 467 167 0
-491 468 0
-492 469 0
-493 470 0
-494 471 168 0
-495 472 0
-169 -170 0
-169 -171 0
-169 -172 0
-169 -173 0
-169 -174 0
-169 -175 0
-169 -176 0
-169 -177 0
-169 -178 0
-169 -179 0
-169 -180 0
-169 -181 0
-169 -182 0
-170 -171 0
-170 -172 0
-170 -173 0
-170 -174 0
-170 -175 0
-170 -176 0
-170 -177 0
-170 -178 0
-170 -179 0
-170 -180 0
-170 -181 0
-170 -182 0
-171 -172 0
-171 -173 0
-171 -174 0
-171 -175 0
-171 -176 0
-171 -177 0
-171 -178 0
-171 -179 0
-171 -180 0
-171 -181 0
-171 -182 0
-172 -173 0
-172 -174 0
-172 -175 0
-172 -176 0
-172 -177 0
-172 -178 0
-172 -179 0
-172 -180 0
-172 -181 0
-172 -182 0
-173 -174 0
-173 -175 0
-173 -176 0
-173 -177 0
-173 -178 0
-173 -179 0
-173 -180 0
-173 -181 0
-173 -182 0
-174 -175 0
-174 -176 0
-174 -177 0
-174 -178 0
-174 -179 0
-174 -180 0
-174 -181 0
-174 -182 0
-175 -176 0
-175 -177 0
-175 -178 0
-175 -179 0
-175 -180 0
-175 -181 0
-175 -182 0
-176 -177 0
-176 -178 0
-176 -179 0
-176 -180 0
-176 -181 0
-176 -182 0
-177 -178 0
-177 -179 0
-177 -180 0
-177 -181 0
-177 -182 0
-178 -179 0
-178 -180 0
-178 -181 0
-178 -182 0
-179 -180 0
-179 -181 0
-179 -182 0
-180 -181 0
-180 -182 0
-181 -182 0
-496 473 169 0
-497 474 170 0
-498 475 171 0
-499 476 172 0
-500 477 173 0
-501 478 174 0
-502 479 175 0
-503 480 0
-504 481 176 0
-505 482 177 0
-506 483 178 0
-507 484 0
-508 485 0
-509 486 0
-510 487 179 0
-511 488 180 0
-512 489 0
-513 490 181 0
-514 491 0
-515 492 0
-516 493 0
-517 494 182 0
-518 495 0
-183 -184 0
-183 -185 0
-183 -186 0
-183 -187 0
-183 -188 0
-183 -189 0
-183 -190 0
-183 -191 0
-183 -192 0
-183 -193 0
-183 -194 0
-183 -195 0
-183 -196 0
-184 -185 0
-184 -186 0
-184 -187 0
-184 -188 0
-184 -189 0
-184 -190 0
-184 -191 0
-184 -192 0
-184 -193 0
-184 -194 0
-184 -195 0
-184 -196 0
-185 -186 0
-185 -187 0
-185 -188 0
-185 -189 0
-185 -190 0
-185 -191 0
-185 -192 0
-185 -193 0
-185 -194 0
-185 -195 0
-185 -196 0
-186 -187 0
-186 -188 0
-186 -189 0
-186 -190 0
-186 -191 0
-186 -192 0
-186 -193 0
-186 -194 0
-186 -195 0
-186 -196 0
-187 -188 0
-187 -189 0
-187 -190 0
-187 -191 0
-187 -192 0
-187 -193 0
-187 -194 0
-187 -195 0
-187 -196 0
-188 -189 0
-188 -190 0
-188 -191 0
-188 -192 0
-188 -193 0
-188 -194 0
-188 -195 0
-188 -196 0
-189 -190 0
-189 -191 0
-189 -192 0
-189 -193 0
-189 -194 0
-189 -195 0
-189 -196 0
-190 -191 0
-190 -192 0
-190 -193 0
-190 -194 0
-190 -195 0
-190 -196 0
-191 -192 0
-191 -193 0
-191 -194 0
-191 -195 0
-191 -196 0
-192 -193 0
-192 -194 0
-192 -195 0
-192 -196 0
-193 -194 0
-193 -195 0
-193 -196 0
-194 -195 0
-194 -196 0
-195 -196 0
-519 496 183 0
-520 497 184 0
-521 498 185 0
-522 499 186 0
-523 500 187 0
-524 501 188 0
-525 502 189 0
-526 503 0
-527 504 190 0
-528 505 191 0
-529 506 192 0
-530 507 0
-531 508 0
-532 509 0
-533 510 193 0
-534 511 194 0
-535 512 0
-536 513 195 0
-537 514 0
-538 515 0
-539 516 0
-540 517 196 0
-541 518 0
-197 0
-198 0
-199 0
-200 0
-201 0
-202 0
-203 0
204 0
-205 0
-206 0
-207 0
208 0
209 0
210 0
-211 0
-212 0
213 0
-214 0
215 0
216 0
217 0
-218 0
219 0
1 15 29 43 57 71 85 99 113 127 141 155 169 183 0
2 16 30 44 58 72 86 100 114 128 142 156 170 184 0
3 17 31 45 59 73 87 101 115 129 143 157 171 185 0
4 18 32 46 60 74 88 102 116 130 144 158 172 186 0
5 19 33 47 61 75 89 103 117 131 145 159 173 187 0
6 20 34 48 62 76 90 104 118 132 146 160 174 188 0
7 21 35 49 63 77 91 105 119 133 147 161 175 189 0
8 22 36 50 64 78 92 106 120 134 148 162 176 190 0
9 23 37 51 65 79 93 107 121 135 149 163 177 191 0
10 24 38 52 66 80 94 108 122 136 150 164 178 192 0
11 25 39 53 67 81 95 109 123 137 151 165 179 193 0
12 26 40 54 68 82 96 110 124 138 152 166 180 194 0
13 27 41 55 69 83 97 111 125 139 153 167 181 195 0
14 28 42 56 70 84 98 112 126 140 154 168 182 196 0
-542 198 0
-542 198 0
-1 542 0
-543 197 0
-543 198 0
-544 197 0
-544 198 0
-545 199 0
-545 215 0
-546 199 0
-546 215 0
-2 543 544 545 546 0
-547 198 0
-547 215 0
-548 198 0
-548 215 0
-549 200 0
-549 210 0
-550 200 0
-550 210 0
-551 203 0
-551 209 0
-552 203 0
-552 209 0
-3 547 548 549 550 551 552 0
-553 199 0
-553 210 0
-554 199 0
-554 210 0
-555 201 0
-555 216 0
-556 201 0
-556 216 0
-557 204 0
-557 209 0
-558 204 0
-558 209 0
-4 553 554 555 556 557 558 0
-559 200 0
-559 216 0
-560 200 0
-560 216 0
-561 202 0
-561 219 0
-562 202 0
-562 219 0
-5 559 560 561 562 0
-563 201 0
-563 219 0
-564 201 0
-564 219 0
-6 563 564 0
-565 199 0
-565 209 0
-566 199 0
-566 209 0
-567 204 0
-567 210 0
-568 204 0
-568 210 0
-569 205 0
-569 208 0
-570 205 0
-570 208 0
-7 565 566 567 568 569 570 0
-571 203 0
-571 208 0
-572 203 0
-572 208 0
-573 206 0
-573 213 0
-574 206 0
-574 213 0
-8 571 572 573 574 0
-575 205 0
-575 213 0
-576 205 0
-576 213 0
-9 575 576 0
-10 0
-577 212 0
-577 219 0
-578 212 0
-578 219 0
-579 213 0
-579 217 0
-580 213 0
-580 217 0
-11 577 578 579 580 0
-581 211 0
-581 219 0
-582 211 0
-582 219 0
-583 213 0
-583 218 0
-584 213 0
-584 218 0
-585 214 0
-585 215 0
-586 214 0
-586 215 0
-12 581 582 583 584 585 586 0
-587 212 0
-587 215 0
-588 212 0
-588 215 0
-13 587 588 0
-589 212 0
-589 213 0
-590 212 0
-590 213 0
-591 217 0
-591 219 0
-592 217 0
-592 219 0
-14 589 590 591 592 0
-593 221 0
-593 221 0
-15 593 0
-594 220 0
-594 221 0
-595 220 0
-595 221 0
-596 222 0
-596 238 0
-597 222 0
-597 238 0
-16 594 595 596 597 0
-598 221 0
-598 238 0
-599 221 0
-599 238 0
-600 223 0
-600 233 0
-601 223 0
-601 233 0
-602 226 0
-602 232 0
-603 226 0
-603 232 0
-17 598 599 600 601 602 603 0
-604 222 0
-604 233 0
-605 222 0
-605 233 0
-606 224 0
-606 239 0
-607 224 0
-607 239 0
-608 227 0
-608 232 0
-609 227 0
-609 232 0
-18 604 605 606 607 608 609 0
-610 223 0
-610 239 0
-611 223 0
-611 239 0
-612 225 0
-612 242 0
-613 225 0
-613 242 0
-19 610 611 612 613 0
-614 224 0
-614 242 0
-615 224 0
-615 242 0
-20 614 615 0
-616 222 0
-616 232 0
-617 222 0
-617 232 0
-618 227 0
-618 233 0
-619 227 0
-619 233 0
-620 228 0
-620 231 0
-621 228 0
-621 231 0
-21 616 617 618 619 620 621 0
-622 226 0
-622 231 0
-623 226 0
-623 231 0
-624 229 0
-624 236 0
-625 229 0
-625 236 0
-22 622 623 624 625 0
-626 228 0
-626 236 0
-627 228 0
-627 236 0
-23 626 627 0
-24 0
-628 235 0
-628 242 0
-629 235 0
-629 242 0
-630 236 0
-630 240 0
-631 236 0
-631 240 0
-25 628 629 630 631 0
-632 234 0
-632 242 0
-633 234 0
-633 242 0
-634 236 0
-634 241 0
-635 236 0
-635 241 0
-636 237 0
-636 238 0
-637 237 0
-637 238 0
-26 632 633 634 635 636 637 0
-638 235 0
-638 238 0
-639 235 0
-639 238 0
-27 638 639 0
-640 235 0
-640 236 0
-641 235 0
-641 236 0
-642 240 0
-642 242 0
-643 240 0
-643 242 0
-28 640 641 642 643 0
-644 244 0
-644 244 0
-29 644 0
-645 243 0
-645 244 0
-646 243 0
-646 244 0
-647 245 0
-647 261 0
-648 245 0
-648 261 0
-30 645 646 647 648 0
-649 244 0
-649 261 0
-650 244 0
-650 261 0
-651 246 0
-651 256 0
-652 246 0
-652 256 0
-653 249 0
-653 255 0
-654 249 0
-654 255 0
-31 649 650 651 652 653 654 0
-655 245 0
-655 256 0
-656 245 0
-656 256 0
-657 247 0
-657 262 0
-658 247 0
-658 262 0
-659 250 0
-659 255 0
-660 250 0
-660 255 0
-32 655 656 657 658 659 660 0
-661 246 0
-661 262 0
-662 246 0
-662 262 0
-663 248 0
-663 265 0
-664 248 0
-664 265 0
-33 661 662 663 664 0
-665 247 0
-665 265 0
-666 247 0
-666 265 0
-34 665 666 0
-667 245 0
-667 255 0
-668 245 0
-668 255 0
-669 250 0
-669 256 0
-670 250 0
-670 256 0
-671 251 0
-671 254 0
-672 251 0
-672 254 0
-35 667 668 669 670 671 672 0
-673 249 0
-673 254 0
-674 249 0
-674 254 0
-675 252 0
-675 259 0
-676 252 0
-676 259 0
-36 673 674 675 676 0
-677 251 0
-677 259 0
-678 251 0
-678 259 0
-37 677 678 0
-38 0
-679 258 0
-679 265 0
-680 258 0
-680 265 0
-681 259 0
-681 263 0
-682 259 0
-682 263 0
-39 679 680 681 682 0
-683 257 0
-683 265 0
-684 257 0
-684 265 0
-685 259 0
-685 264 0
-686 259 0
-686 264 0
-687 260 0
-687 261 0
-688 260 0
-688 261 0
-40 683 684 685 686 687 688 0
-689 258 0
-689 261 0
-690 258 0
-690 261 0
-41 689 690 0
-691 258 0
-691 259 0
-692 258 0
-692 259 0
-693 263 0
-693 265 0
-694 263 0
-694 265 0
-42 691 692 693 694 0
-695 267 0
-695 267 0
-43 695 0
-696 266 0
-696 267 0
-697 266 0
-697 267 0
-698 268 0
-698 284 0
-699 268 0
-699 284 0
-44 696 697 698 699 0
-700 267 0
-700 284 0
-701 267 0
-701 284 0
-702 269 0
-702 279 0
-703 269 0
-703 279 0
-704 272 0
-704 278 0
-705 272 0
-705 278 0
-45 700 701 702 703 704 705 0
-706 268 0
-706 279 0
-707 268 0
-707 279 0
-708 270 0
-708 285 0
-709 270 0
-709 285 0
-710 273 0
-710 278 0
-711 273 0
-711 278 0
-46 706 707 708 709 710 711 0
-712 269 0
-712 285 0
-713 269 0
-713 285 0
-714 271 0
-714 288 0
-715 271 0
-715 288 0
-47 712 713 714 715 0
-716 270 0
-716 288 0
-717 270 0
-717 288 0
-48 716 717 0
-718 268 0
-718 278 0
-719 268 0
-719 278 0
-720 273 0
-720 279 0
-721 273 0
-721 279 0
-722 274 0
-722 277 0
-723 274 0
-723 277 0
-49 718 719 720 721 722 723 0
-724 272 0
-724 277 0
-725 272 0
-725 277 0
-726 275 0
-726 282 0
-727 275 0
-727 282 0
-50 724 725 726 727 0
-728 274 0
-728 282 0
-729 274 0
-729 282 0
-51 728 729 0
-52 0
-730 281 0
-730 288 0
-731 281 0
-731 288 0
-732 282 0
-732 286 0
-733 282 0
-733 286 0
-53 730 731 732 733 0
-734 280 0
-734 288 0
-735 280 0
-735 288 0
-736 282 0
-736 287 0
-737 282 0
-737 287 0
-738 283 0
-738 284 0
-739 283 0
-739 284 0
-54 734 735 736 737 738 739 0
-740 281 0
-740 284 0
-741 281 0
-741 284 0
-55 740 741 0
-742 281 0
-742 282 0
-743 281 0
-743 282 0
-744 286 0
-744 288 0
-745 286 0
-745 288 0
-56 742 743 744 745 0
-746 290 0
-746 290 0
-57 746 0
-747 289 0
-747 290 0
-748 289 0
-748 290 0
-749 291 0
-749 307 0
-750 291 0
-750 307 0
-58 747 748 749 750 0
-751 290 0
-751 307 0
-752 290 0
-752 307 0
-753 292 0
-753 302 0
-754 292 0
-754 302 0
-755 295 0
-755 301 0
-756 295 0
-756 301 0
-59 751 752 753 754 755 756 0
-757 291 0
-757 302 0
-758 291 0
-758 302 0
-759 293 0
-759 308 0
-760 293 0
-760 308 0
-761 296 0
-761 301 0
-762 296 0
-762 301 0
-60 757 758 759 760 761 762 0
-763 292 0
-763 308 0
-764 292 0
-764 308 0
-765 294 0
-765 311 0
-766 294 0
-766 311 0
-61 763 764 765 766 0
-767 293 0
-767 311 0
-768 293 0
-768 311 0
-62 767 768 0
-769 291 0
-769 301 0
-770 291 0
-770 301 0
-771 296 0
-771 302 0
-772 296 0
-772 302 0
-773 297 0
-773 300 0
-774 297 0
-774 300 0
-63 769 770 771 772 773 774 0
-775 295 0
-775 300 0
-776 295 0
-776 300 0
-777 298 0
-777 305 0
-778 298 0
-778 305 0
-64 775 776 777 778 0
-779 297 0
-779 305 0
-780 297 0
-780 305 0
-65 779 780 0
-66 0
-781 304 0
-781 311 0
-782 304 0
-782 311 0
-783 305 0
-783 309 0
-784 305 0
-784 309 0
-67 781 782 783 784 0
-785 303 0
-785 311 0
-786 303 0
-786 311 0
-787 305 0
-787 310 0
-788 305 0
-788 310 0
-789 306 0
-789 307 0
-790 306 0
-790 307 0
-68 785 786 787 788 789 790 0
-791 304 0
-791 307 0
-792 304 0
-792 307 0
-69 791 792 0
-793 304 0
-793 305 0
-794 304 0
-794 305 0
-795 309 0
-795 311 0
-796 309 0
-796 311 0
-70 793 794 795 796 0
-797 313 0
-797 313 0
-71 797 0
-798 312 0
-798 313 0
-799 312 0
-799 313 0
-800 314 0
-800 330 0
-801 314 0
-801 330 0
-72 798 799 800 801 0
-802 313 0
-802 330 0
-803 313 0
-803 330 0
-804 315 0
-804 325 0
-805 315 0
-805 325 0
-806 318 0
-806 324 0
-807 318 0
-807 324 0
-73 802 803 804 805 806 807 0
-808 314 0
-808 325 0
-809 314 0
-809 325 0
-810 316 0
-810 331 0
-811 316 0
-811 331 0
-812 319 0
-812 324 0
-813 319 0
-813 324 0
-74 808 809 810 811 812 813 0
-814 315 0
-814 331 0
-815 315 0
-815 331 0
-816 317 0
-816 334 0
-817 317 0
-817 334 0
-75 814 815 816 817 0
-818 316 0
-818 334 0
-819 316 0
-819 334 0
-76 818 819 0
-820 314 0
-820 324 0
-821 314 0
-821 324 0
-822 319 0
-822 325 0
-823 319 0
-823 325 0
-824 320 0
-824 323 0
-825 320 0
-825 323 0
-77 820 821 822 823 824 825 0
-826 318 0
-826 323 0
-827 318 0
-827 323 0
-828 321 0
-828 328 0
-829 321 0
-829 328 0
-78 826 827 828 829 0
-830 320 0
-830 328 0
-831 320 0
-831 328 0
-79 830 831 0
-80 0
-832 327 0
-832 334 0
-833 327 0
-833 334 0
-834 328 0
-834 332 0
-835 328 0
-835 332 0
-81 832 833 834 835 0
-836 326 0
-836 334 0
-837 326 0
-837 334 0
-838 328 0
-838 333 0
-839 328 0
-839 333 0
-840 329 0
-840 330 0
-841 329 0
-841 330 0
-82 836 837 838 839 840 841 0
-842 327 0
-842 330 0
-843 327 0
-843 330 0
-83 842 843 0
-844 327 0
-844 328 0
-845 327 0
-845 328 0
-846 332 0
-846 334 0
-847 332 0
-847 334 0
-84 844 845 846 847 0
-848 336 0
-848 336 0
-85 848 0
-849 335 0
-849 336 0
-850 335 0
-850 336 0
-851 337 0
-851 353 0
-852 337 0
-852 353 0
-86 849 850 851 852 0
-853 336 0
-853 353 0
-854 336 0
-854 353 0
-855 338 0
-855 348 0
-856 338 0
-856 348 0
-857 341 0
-857 347 0
-858 341 0
-858 347 0
-87 853 854 855 856 857 858 0
-859 337 0
-859 348 0
-860 337 0
-860 348 0
-861 339 0
-861 354 0
-862 339 0
-862 354 0
-863 342 0
-863 347 0
-864 342 0
-864 347 0
-88 859 860 861 862 863 864 0
-865 338 0
-865 354 0
-866 338 0
-866 354 0
-867 340 0
-867 357 0
-868 340 0
-868 357 0
-89 865 866 867 868 0
-869 339 0
-869 357 0
-870 339 0
-870 357 0
-90 869 870 0
-871 337 0
-871 347 0
-872 337 0
-872 347 0
-873 342 0
-873 348 0
-874 342 0
-874 348 0
-875 343 0
-875 346 0
-876 343 0
-876 346 0
-91 871 872 873 874 875 876 0
-877 341 0
-877 346 0
-878 341 0
-878 346 0
-879 344 0
-879 351 0
-880 344 0
-880 351 0
-92 877 878 879 880 0
-881 343 0
-881 351 0
-882 343 0
-882 351 0
-93 881 882 0
-94 0
-883 350 0
-883 357 0
-884 350 0
-884 357 0
-885 351 0
-885 355 0
-886 351 0
-886 355 0
-95 883 884 885 886 0
-887 349 0
-887 357 0
-888 349 0
-888 357 0
-889 351 0
-889 356 0
-890 351 0
-890 356 0
-891 352 0
-891 353 0
-892 352 0
-892 353 0
-96 887 888 889 890 891 892 0
-893 350 0
-893 353 0
-894 350 0
-894 353 0
-97 893 894 0
-895 350 0
-895 351 0
-896 350 0
-896 351 0
-897 355 0
-897 357 0
-898 355 0
-898 357 0
-98 895 896 897 898 0
-899 359 0
-899 359 0
-99 899 0
-900 358 0
-900 359 0
-901 358 0
-901 359 0
-902 360 0
-902 376 0
-903 360 0
-903 376 0
-100 900 901 902 903 0
-904 359 0
-904 376 0
-905 359 0
-905 376 0
-906 361 0
-906 371 0
-907 361 0
-907 371 0
-908 364 0
-908 370 0
-909 364 0
-909 370 0
-101 904 905 906 907 908 909 0
-910 360 0
-910 371 0
-911 360 0
-911 371 0
-912 362 0
-912 377 0
-913 362 0
-913 377 0
-914 365 0
-914 370 0
-915 365 0
-915 370 0
-102 910 911 912 913 914 915 0
-916 361 0
-916 377 0
-917 361 0
-917 377 0
-918 363 0
-918 380 0
-919 363 0
-919 380 0
-103 916 917 918 919 0
-920 362 0
-920 380 0
-921 362 0
-921 380 0
-104 920 921 0
-922 360 0
-922 370 0
-923 360 0
-923 370 0
-924 365 0
-924 371 0
-925 365 0
-925 371 0
-926 366 0
-926 369 0
-927 366 0
-927 369 0
-105 922 923 924 925 926 927 0
-928 364 0
-928 369 0
-929 364 0
-929 369 0
-930 367 0
-930 374 0
-931 367 0
-931 374 0
-106 928 929 930 931 0
-932 366 0
-932 374 0
-933 366 0
-933 374 0
-107 932 933 0
-108 0
-934 373 0
-934 380 0
-935 373 0
-935 380 0
-936 374 0
-936 378 0
-937 374 0
-937 378 0
-109 934 935 936 937 0
-938 372 0
-938 380 0
-939 372 0
-939 380 0
-940 374 0
-940 379 0
-941 374 0
-941 379 0
-942 375 0
-942 376 0
-943 375 0
-943 376 0
-110 938 939 940 941 942 943 0
-944 373 0
-944 376 0
-945 373 0
-945 376 0
-111 944 945 0
-946 373 0
-946 374 0
-947 373 0
-947 374 0
-948 378 0
-948 380 0
-949 378 0
-949 380 0
-112 946 947 948 949 0
-950 382 0
-950 382 0
-113 950 0
-951 381 0
-951 382 0
-952 381 0
-952 382 0
-953 383 0
-953 399 0
-954 383 0
-954 399 0
-114 951 952 953 954 0
-955 382 0
-955 399 0
-956 382 0
-956 399 0
-957 384 0
-957 394 0
-958 384 0
-958 394 0
-959 387 0
-959 393 0
-960 387 0
-960 393 0
-115 955 956 957 958 959 960 0
-961 383 0
-961 394 0
-962 383 0
-962 394 0
-963 385 0
-963 400 0
-964 385 0
-964 400 0
-965 388 0
-965 393 0
-966 388 0
-966 393 0
-116 961 962 963 964 965 966 0
-967 384 0
-967 400 0
-968 384 0
-968 400 0
-969 386 0
-969 403 0
-970 386 0
-970 403 0
-117 967 968 969 970 0
-971 385 0
-971 403 0
-972 385 0
-972 403 0
-118 971 972 0
-973 383 0
-973 393 0
-974 383 0
-974 393 0
-975 388 0
-975 394 0
-976 388 0
-976 394 0
-977 389 0
-977 392 0
-978 389 0
-978 392 0
-119 973 974 975 976 977 978 0
-979 387 0
-979 392 0
-980 387 0
-980 392 0
-981 390 0
-981 397 0
-982 390 0
-982 397 0
-120 979 980 981 982 0
-983 389 0
-983 397 0
-984 389 0
-984 397 0
-121 983 984 0
-122 0
-985 396 0
-985 403 0
-986 396 0
-986 403 0
-987 397 0
-987 401 0
-988 397 0
-988 401 0
-123 985 986 987 988 0
-989 395 0
-989 403 0
-990 395 0
-990 403 0
-991 397 0
-991 402 0
-992 397 0
-992 402 0
-993 398 0
-993 399 0
-994 398 0
-994 399 0
-124 989 990 991 992 993 994 0
-995 396 0
-995 399 0
-996 396 0
-996 399 0
-125 995 996 0
-997 396 0
-997 397 0
-998 396 0
-998 397 0
-999 401 0
-999 403 0
-1000 401 0
-1000 403 0
-126 997 998 999 1000 0
-1001 405 0
-1001 405 0
-127 1001 0
-1002 404 0
-1002 405 0
-1003 404 0
-1003 405 0
-1004 406 0
-1004 422 0
-1005 406 0
-1005 422 0
-128 1002 1003 1004 1005 0
-1006 405 0
-1006 422 0
-1007 405 0
-1007 422 0
-1008 407 0
-1008 417 0
-1009 407 0
-1009 417 0
-1010 410 0
-1010 416 0
-1011 410 0
-1011 416 0
-129 1006 1007 1008 1009 1010 1011 0
-1012 406 0
-1012 417 0
-1013 406 0
-1013 417 0
-1014 408 0
-1014 423 0
-1015 408 0
-1015 423 0
-1016 411 0
-1016 416 0
-1017 411 0
-1017 416 0
-130 1012 1013 1014 1015 1016 1017 0
-1018 407 0
-1018 423 0
-1019 407 0
-1019 423 0
-1020 409 0
-1020 426 0
-1021 409 0
-1021 426 0
-131 1018 1019 1020 1021 0
-1022 408 0
-1022 426 0
-1023 408 0
-1023 426 0
-132 1022 1023 0
-1024 406 0
-1024 416 0
-1025 406 0
-1025 416 0
-1026 411 0
-1026 417 0
-1027 411 0
-1027 417 0
-1028 412 0
-1028 415 0
-1029 412 0
-1029 415 0
-133 1024 1025 1026 1027 1028 1029 0
-1030 410 0
-1030 415 0
-1031 410 0
-1031 415 0
-1032 413 0
-1032 420 0
-1033 413 0
-1033 420 0
-134 1030 1031 1032 1033 0
-1034 412 0
-1034 420 0
-1035 412 0
-1035 420 0
-135 1034 1035 0
-136 0
-1036 419 0
-1036 426 0
-1037 419 0
-1037 426 0
-1038 420 0
-1038 424 0
-1039 420 0
-1039 424 0
-137 1036 1037 1038 1039 0
-1040 418 0
-1040 426 0
-1041 418 0
-1041 426 0
-1042 420 0
-1042 425 0
-1043 420 0
-1043 425 0
-1044 421 0
-1044 422 0
-1045 421 0
-1045 422 0
-138 1040 1041 1042 1043 1044 1045 0
-1046 419 0
-1046 422 0
-1047 419 0
-1047 422 0
-139 1046 1047 0
-1048 419 0
-1048 420 0
-1049 419 0
-1049 420 0
-1050 424 0
-1050 426 0
-1051 424 0
-1051 426 0
-140 1048 1049 1050 1051 0
-1052 428 0
-1052 428 0
-141 1052 0
-1053 427 0
-1053 428 0
-1054 427 0
-1054 428 0
-1055 429 0
-1055 445 0
-1056 429 0
-1056 445 0
-142 1053 1054 1055 1056 0
-1057 428 0
-1057 445 0
-1058 428 0
-1058 445 0
-1059 430 0
-1059 440 0
-1060 430 0
-1060 440 0
-1061 433 0
-1061 439 0
-1062 433 0
-1062 439 0
-143 1057 1058 1059 1060 1061 1062 0
-1063 429 0
-1063 440 0
-1064 429 0
-1064 440 0
-1065 431 0
-1065 446 0
-1066 431 0
-1066 446 0
-1067 434 0
-1067 439 0
-1068 434 0
-1068 439 0
-144 1063 1064 1065 1066 1067 1068 0
-1069 430 0
-1069 446 0
-1070 430 0
-1070 446 0
-1071 432 0
-1071 449 0
-1072 432 0
-1072 449 0
-145 1069 1070 1071 1072 0
-1073 431 0
-1073 449 0
-1074 431 0
-1074 449 0
-146 1073 1074 0
-1075 429 0
-1075 439 0
-1076 429 0
-1076 439 0
-1077 434 0
-1077 440 0
-1078 434 0
-1078 440 0
-1079 435 0
-1079 438 0
-1080 435 0
-1080 438 0
-147 1075 1076 1077 1078 1079 1080 0
-1081 433 0
-1081 438 0
-1082 433 0
-1082 438 0
-1083 436 0
-1083 443 0
-1084 436 0
-1084 443 0
-148 1081 1082 1083 1084 0
-1085 435 0
-1085 443 0
-1086 435 0
-1086 443 0
-149 1085 1086 0
-150 0
-1087 442 0
-1087 449 0
-1088 442 0
-1088 449 0
-1089 443 0
-1089 447 0
-1090 443 0
-1090 447 0
-151 1087 1088 1089 1090 0
-1091 441 0
-1091 449 0
-1092 441 0
-1092 449 0
-1093 443 0
-1093 448 0
-1094 443 0
-1094 448 0
-1095 444 0
-1095 445 0
-1096 444 0
-1096 445 0
-152 1091 1092 1093 1094 1095 1096 0
-1097 442 0
-1097 445 0
-1098 442 0
-1098 445 0
-153 1097 1098 0
-1099 442 0
-1099 443 0
-1100 442 0
-1100 443 0
-1101 447 0
-1101 449 0
-1102 447 0
-1102 449 0
-154 1099 1100 1101 1102 0
-1103 451 0
-1103 451 0
-155 1103 0
-1104 450 0
-1104 451 0
-1105 450 0
-1105 451 0
-1106 452 0
-1106 468 0
-1107 452 0
-1107 468 0
-156 1104 1105 1106 1107 0
-1108 451 0
-1108 468 0
-1109 451 0
-1109 468 0
-1110 453 0
-1110 463 0
-1111 453 0
-1111 463 0
-1112 456 0
-1112 462 0
-1113 456 0
-1113 462 0
-157 1108 1109 1110 1111 1112 1113 0
-1114 452 0
-1114 463 0
-1115 452 0
-1115 463 0
-1116 454 0
-1116 469 0
-1117 454 0
-1117 469 0
-1118 457 0
-1118 462 0
-1119 457 0
-1119 462 0
-158 1114 1115 1116 1117 1118 1119 0
-1120 453 0
-1120 469 0
-1121 453 0
-1121 469 0
-1122 455 0
-1122 472 0
-1123 455 0
-1123 472 0
-159 1120 1121 1122 1123 0
-1124 454 0
-1124 472 0
-1125 454 0
-1125 472 0
-160 1124 1125 0
-1126 452 0
-1126 462 0
-1127 452 0
-1127 462 0
-1128 457 0
-1128 463 0
-1129 457 0
-1129 463 0
-1130 458 0
-1130 461 0
-1131 458 0
-1131 461 0
-161 1126 1127 1128 1129 1130 1131 0
-1132 456 0
-1132 461 0
-1133 456 0
-1133 461 0
-1134 459 0
-1134 466 0
-1135 459 0
-1135 466 0
-162 1132 1133 1134 1135 0
-1136 458 0
-1136 466 0
-1137 458 0
-1137 466 0
-163 1136 1137 0
-164 0
-1138 465 0
-1138 472 0
-1139 465 0
-1139 472 0
-1140 466 0
-1140 470 0
-1141 466 0
-1141 470 0
-165 1138 1139 1140 1141 0
-1142 464 0
-1142 472 0
-1143 464 0
-1143 472 0
-1144 466 0
-1144 471 0
-1145 466 0
-1145 471 0
-1146 467 0
-1146 468 0
-1147 467 0
-1147 468 0
-166 1142 1143 1144 1145 1146 1147 0
-1148 465 0
-1148 468 0
-1149 465 0
-1149 468 0
-167 1148 1149 0
-1150 465 0
-1150 466 0
-1151 465 0
-1151 466 0
-1152 470 0
-1152 472 0
-1153 470 0
-1153 472 0
-168 1150 1151 1152 1153 0
-1154 474 0
-1154 474 0
-169 1154 0
-1155 473 0
-1155 474 0
-1156 473 0
-1156 474 0
-1157 475 0
-1157 491 0
-1158 475 0
-1158 491 0
-170 1155 1156 1157 1158 0
-1159 474 0
-1159 491 0
-1160 474 0
-1160 491 0
-1161 476 0
-1161 486 0
-1162 476 0
-1162 486 0
-1163 479 0
-1163 485 0
-1164 479 0
-1164 485 0
-171 1159 1160 1161 1162 1163 1164 0
-1165 475 0
-1165 486 0
-1166 475 0
-1166 486 0
-1167 477 0
-1167 492 0
-1168 477 0
-1168 492 0
-1169 480 0
-1169 485 0
-1170 480 0
-1170 485 0
-172 1165 1166 1167 1168 1169 1170 0
-1171 476 0
-1171 492 0
-1172 476 0
-1172 492 0
-1173 478 0
-1173 495 0
-1174 478 0
-1174 495 0
-173 1171 1172 1173 1174 0
-1175 477 0
-1175 495 0
-1176 477 0
-1176 495 0
-174 1175 1176 0
-1177 475 0
-1177 485 0
-1178 475 0
-1178 485 0
-1179 480 0
-1179 486 0
-1180 480 0
-1180 486 0
-1181 481 0
-1181 484 0
-1182 481 0
-1182 484 0
-175 1177 1178 1179 1180 1181 1182 0
-1183 479 0
-1183 484 0
-1184 479 0
-1184 484 0
-1185 482 0
-1185 489 0
-1186 482 0
-1186 489 0
-176 1183 1184 1185 1186 0
-1187 481 0
-1187 489 0
-1188 481 0
-1188 489 0
-177 1187 1188 0
-178 0
-1189 488 0
-1189 495 0
-1190 488 0
-1190 495 0
-1191 489 0
-1191 493 0
-1192 489 0
-1192 493 0
-179 1189 1190 1191 1192 0
-1193 487 0
-1193 495 0
-1194 487 0
-1194 495 0
-1195 489 0
-1195 494 0
-1196 489 0
-1196 494 0
-1197 490 0
-1197 491 0
-1198 490 0
-1198 491 0
-180 1193 1194 1195 1196 1197 1198 0
-1199 488 0
-1199 491 0
-1200 488 0
-1200 491 0
-181 1199 1200 0
-1201 488 0
-1201 489 0
-1202 488 0
-1202 489 0
-1203 493 0
-1203 495 0
-1204 493 0
-1204 495 0
-182 1201 1202 1203 1204 0
-1205 497 0
-1205 497 0
-183 1205 0
-1206 496 0
-1206 497 0
-1207 496 0
-1207 497 0
-1208 498 0
-1208 514 0
-1209 498 0
-1209 514 0
-184 1206 1207 1208 1209 0
-1210 497 0
-1210 514 0
-1211 497 0
-1211 514 0
-1212 499 0
-1212 509 0
-1213 499 0
-1213 509 0
-1214 502 0
-1214 508 0
-1215 502 0
-1215 508 0
-185 1210 1211 1212 1213 1214 1215 0
-1216 498 0
-1216 509 0
-1217 498 0
-1217 509 0
-1218 500 0
-1218 515 0
-1219 500 0
-1219 515 0
-1220 503 0
-1220 508 0
-1221 503 0
-1221 508 0
-186 1216 1217 1218 1219 1220 1221 0
-1222 499 0
-1222 515 0
-1223 499 0
-1223 515 0
-1224 501 0
-1224 518 0
-1225 501 0
-1225 518 0
-187 1222 1223 1224 1225 0
-1226 500 0
-1226 518 0
-1227 500 0
-1227 518 0
-188 1226 1227 0
-1228 498 0
-1228 508 0
-1229 498 0
-1229 508 0
-1230 503 0
-1230 509 0
-1231 503 0
-1231 509 0
-1232 504 0
-1232 507 0
-1233 504 0
-1233 507 0
-189 1228 1229 1230 1231 1232 1233 0
-1234 502 0
-1234 507 0
-1235 502 0
-1235 507 0
-1236 505 0
-1236 512 0
-1237 505 0
-1237 512 0
-190 1234 1235 1236 1237 0
-1238 504 0
-1238 512 0
-1239 504 0
-1239 512 0
-191 1238 1239 0
-192 0
-1240 511 0
-1240 518 0
-1241 511 0
-1241 518 0
-1242 512 0
-1242 516 0
-1243 512 0
-1243 516 0
-193 1240 1241 1242 1243 0
-1244 510 0
-1244 518 0
-1245 510 0
-1245 518 0
-1246 512 0
-1246 517 0
-1247 512 0
-1247 517 0
-1248 513 0
-1248 514 0
-1249 513 0
-1249 514 0
-194 1244 1245 1246 1247 1248 1249 0
-1250 511 0
-1250 514 0
-1251 511 0
-1251 514 0
-195 1250 1251 0
-1252 511 0
-1252 512 0
-1253 511 0
-1253 512 0
-1254 516 0
-1254 518 0
-1255 516 0
-1255 518 0
-196 1252 1253 1254 1255 0
