p cnf 481 1820
-1 -2 0
-1 -3 0
-1 -4 0
-1 -5 0
-1 -6 0
-1 -7 0
-1 -8 0
-1 -9 0
-1 -10 0
-1 -11 0
-1 -12 0
-1 -13 0
-2 -3 0
-2 -4 0
-2 -5 0
-2 -6 0
-2 -7 0
-2 -8 0
-2 -9 0
-2 -10 0
-2 -11 0
-2 -12 0
-2 -13 0
-3 -4 0
-3 -5 0
-3 -6 0
-3 -7 0
-3 -8 0
-3 -9 0
-3 -10 0
-3 -11 0
-3 -12 0
-3 -13 0
-4 -5 0
-4 -6 0
-4 -7 0
-4 -8 0
-4 -9 0
-4 -10 0
-4 -11 0
-4 -12 0
-4 -13 0
-5 -6 0
-5 -7 0
-5 -8 0
-5 -9 0
-5 -10 0
-5 -11 0
-5 -12 0
-5 -13 0
-6 -7 0
-6 -8 0
-6 -9 0
-6 -10 0
-6 -11 0
-6 -12 0
-6 -13 0
-7 -8 0
-7 -9 0
-7 -10 0
-7 -11 0
-7 -12 0
-7 -13 0
-8 -9 0
-8 -10 0
-8 -11 0
-8 -12 0
-8 -13 0
-9 -10 0
-9 -11 0
-9 -12 0
-9 -13 0
-10 -11 0
-10 -12 0
-10 -13 0
-11 -12 0
-11 -13 0
-12 -13 0
-14 -15 0
-14 -16 0
-14 -17 0
-14 -18 0
-14 -19 0
-14 -20 0
-14 -21 0
-14 -22 0
-14 -23 0
-14 -24 0
-14 -25 0
-14 -26 0
-15 -16 0
-15 -17 0
-15 -18 0
-15 -19 0
-15 -20 0
-15 -21 0
-15 -22 0
-15 -23 0
-15 -24 0
-15 -25 0
-15 -26 0
-16 -17 0
-16 -18 0
-16 -19 0
-16 -20 0
-16 -21 0
-16 -22 0
-16 -23 0
-16 -24 0
-16 -25 0
-16 -26 0
-17 -18 0
-17 -19 0
-17 -20 0
-17 -21 0
-17 -22 0
-17 -23 0
-17 -24 0
-17 -25 0
-17 -26 0
-18 -19 0
-18 -20 0
-18 -21 0
-18 -22 0
-18 -23 0
-18 -24 0
-18 -25 0
-18 -26 0
-19 -20 0
-19 -21 0
-19 -22 0
-19 -23 0
-19 -24 0
-19 -25 0
-19 -26 0
-20 -21 0
-20 -22 0
-20 -23 0
-20 -24 0
-20 -25 0
-20 -26 0
-21 -22 0
-21 -23 0
-21 -24 0
-21 -25 0
-21 -26 0
-22 -23 0
-22 -24 0
-22 -25 0
-22 -26 0
-23 -24 0
-23 -25 0
-23 -26 0
-24 -25 0
-24 -26 0
-25 -26 0
-27 -28 0
-27 -29 0
-27 -30 0
-27 -31 0
-27 -32 0
-27 -33 0
-27 -34 0
-27 -35 0
-27 -36 0
-27 -37 0
-27 -38 0
-27 -39 0
-28 -29 0
-28 -30 0
-28 -31 0
-28 -32 0
-28 -33 0
-28 -34 0
-28 -35 0
-28 -36 0
-28 -37 0
-28 -38 0
-28 -39 0
-29 -30 0
-29 -31 0
-29 -32 0
-29 -33 0
-29 -34 0
-29 -35 0
-29 -36 0
-29 -37 0
-29 -38 0
-29 -39 0
-30 -31 0
-30 -32 0
-30 -33 0
-30 -34 0
-30 -35 0
-30 -36 0
-30 -37 0
-30 -38 0
-30 -39 0
-31 -32 0
-31 -33 0
-31 -34 0
-31 -35 0
-31 -36 0
-31 -37 0
-31 -38 0
-31 -39 0
-32 -33 0
-32 -34 0
-32 -35 0
-32 -36 0
-32 -37 0
-32 -38 0
-32 -39 0
-33 -34 0
-33 -35 0
-33 -36 0
-33 -37 0
-33 -38 0
-33 -39 0
-34 -35 0
-34 -36 0
-34 -37 0
-34 -38 0
-34 -39 0
-35 -36 0
-35 -37 0
-35 -38 0
-35 -39 0
-36 -37 0
-36 -38 0
-36 -39 0
-37 -38 0
-37 -39 0
-38 -39 0
-40 -41 0
-40 -42 0
-40 -43 0
-40 -44 0
-40 -45 0
-40 -46 0
-40 -47 0
-40 -48 0
-40 -49 0
-40 -50 0
-40 -51 0
-40 -52 0
-41 -42 0
-41 -43 0
-41 -44 0
-41 -45 0
-41 -46 0
-41 -47 0
-41 -48 0
-41 -49 0
-41 -50 0
-41 -51 0
-41 -52 0
-42 -43 0
-42 -44 0
-42 -45 0
-42 -46 0
-42 -47 0
-42 -48 0
-42 -49 0
-42 -50 0
-42 -51 0
-42 -52 0
-43 -44 0
-43 -45 0
-43 -46 0
-43 -47 0
-43 -48 0
-43 -49 0
-43 -50 0
-43 -51 0
-43 -52 0
-44 -45 0
-44 -46 0
-44 -47 0
-44 -48 0
-44 -49 0
-44 -50 0
-44 -51 0
-44 -52 0
-45 -46 0
-45 -47 0
-45 -48 0
-45 -49 0
-45 -50 0
-45 -51 0
-45 -52 0
-46 -47 0
-46 -48 0
-46 -49 0
-46 -50 0
-46 -51 0
-46 -52 0
-47 -48 0
-47 -49 0
-47 -50 0
-47 -51 0
-47 -52 0
-48 -49 0
-48 -50 0
-48 -51 0
-48 -52 0
-49 -50 0
-49 -51 0
-49 -52 0
-50 -51 0
-50 -52 0
-51 -52 0
-53 -54 0
-53 -55 0
-53 -56 0
-53 -57 0
-53 -58 0
-53 -59 0
-53 -60 0
-53 -61 0
-53 -62 0
-53 -63 0
-53 -64 0
-53 -65 0
-54 -55 0
-54 -56 0
-54 -57 0
-54 -58 0
-54 -59 0
-54 -60 0
-54 -61 0
-54 -62 0
-54 -63 0
-54 -64 0
-54 -65 0
-55 -56 0
-55 -57 0
-55 -58 0
-55 -59 0
-55 -60 0
-55 -61 0
-55 -62 0
-55 -63 0
-55 -64 0
-55 -65 0
-56 -57 0
-56 -58 0
-56 -59 0
-56 -60 0
-56 -61 0
-56 -62 0
-56 -63 0
-56 -64 0
-56 -65 0
-57 -58 0
-57 -59 0
-57 -60 0
-57 -61 0
-57 -62 0
-57 -63 0
-57 -64 0
-57 -65 0
-58 -59 0
-58 -60 0
-58 -61 0
-58 -62 0
-58 -63 0
-58 -64 0
-58 -65 0
-59 -60 0
-59 -61 0
-59 -62 0
-59 -63 0
-59 -64 0
-59 -65 0
-60 -61 0
-60 -62 0
-60 -63 0
-60 -64 0
-60 -65 0
-61 -62 0
-61 -63 0
-61 -64 0
-61 -65 0
-62 -63 0
-62 -64 0
-62 -65 0
-63 -64 0
-63 -65 0
-64 -65 0
-66 -67 0
-66 -68 0
-66 -69 0
-66 -70 0
-66 -71 0
-66 -72 0
-66 -73 0
-66 -74 0
-66 -75 0
-66 -76 0
-66 -77 0
-66 -78 0
-67 -68 0
-67 -69 0
-67 -70 0
-67 -71 0
-67 -72 0
-67 -73 0
-67 -74 0
-67 -75 0
-67 -76 0
-67 -77 0
-67 -78 0
-68 -69 0
-68 -70 0
-68 -71 0
-68 -72 0
-68 -73 0
-68 -74 0
-68 -75 0
-68 -76 0
-68 -77 0
-68 -78 0
-69 -70 0
-69 -71 0
-69 -72 0
-69 -73 0
-69 -74 0
-69 -75 0
-69 -76 0
-69 -77 0
-69 -78 0
-70 -71 0
-70 -72 0
-70 -73 0
-70 -74 0
-70 -75 0
-70 -76 0
-70 -77 0
-70 -78 0
-71 -72 0
-71 -73 0
-71 -74 0
-71 -75 0
-71 -76 0
-71 -77 0
-71 -78 0
-72 -73 0
-72 -74 0
-72 -75 0
-72 -76 0
-72 -77 0
-72 -78 0
-73 -74 0
-73 -75 0
-73 -76 0
-73 -77 0
-73 -78 0
-74 -75 0
-74 -76 0
-74 -77 0
-74 -78 0
-75 -76 0
-75 -77 0
-75 -78 0
-76 -77 0
-76 -78 0
-77 -78 0
-79 -80 0
-79 -81 0
-79 -82 0
-79 -83 0
-79 -84 0
-79 -85 0
-79 -86 0
-79 -87 0
-79 -88 0
-79 -89 0
-79 -90 0
-79 -91 0
-80 -81 0
-80 -82 0
-80 -83 0
-80 -84 0
-80 -85 0
-80 -86 0
-80 -87 0
-80 -88 0
-80 -89 0
-80 -90 0
-80 -91 0
-81 -82 0
-81 -83 0
-81 -84 0
-81 -85 0
-81 -86 0
-81 -87 0
-81 -88 0
-81 -89 0
-81 -90 0
-81 -91 0
-82 -83 0
-82 -84 0
-82 -85 0
-82 -86 0
-82 -87 0
-82 -88 0
-82 -89 0
-82 -90 0
-82 -91 0
-83 -84 0
-83 -85 0
-83 -86 0
-83 -87 0
-83 -88 0
-83 -89 0
-83 -90 0
-83 -91 0
-84 -85 0
-84 -86 0
-84 -87 0
-84 -88 0
-84 -89 0
-84 -90 0
-84 -91 0
-85 -86 0
-85 -87 0
-85 -88 0
-85 -89 0
-85 -90 0
-85 -91 0
-86 -87 0
-86 -88 0
-86 -89 0
-86 -90 0
-86 -91 0
-87 -88 0
-87 -89 0
-87 -90 0
-87 -91 0
-88 -89 0
-88 -90 0
-88 -91 0
-89 -90 0
-89 -91 0
-90 -91 0
-92 -93 0
-92 -94 0
-92 -95 0
-92 -96 0
-92 -97 0
-92 -98 0
-92 -99 0
-92 -100 0
-92 -101 0
-92 -102 0
-92 -103 0
-92 -104 0
-93 -94 0
-93 -95 0
-93 -96 0
-93 -97 0
-93 -98 0
-93 -99 0
-93 -100 0
-93 -101 0
-93 -102 0
-93 -103 0
-93 -104 0
-94 -95 0
-94 -96 0
-94 -97 0
-94 -98 0
-94 -99 0
-94 -100 0
-94 -101 0
-94 -102 0
-94 -103 0
-94 -104 0
-95 -96 0
-95 -97 0
-95 -98 0
-95 -99 0
-95 -100 0
-95 -101 0
-95 -102 0
-95 -103 0
-95 -104 0
-96 -97 0
-96 -98 0
-96 -99 0
-96 -100 0
-96 -101 0
-96 -102 0
-96 -103 0
-96 -104 0
-97 -98 0
-97 -99 0
-97 -100 0
-97 -101 0
-97 -102 0
-97 -103 0
-97 -104 0
-98 -99 0
-98 -100 0
-98 -101 0
-98 -102 0
-98 -103 0
-98 -104 0
-99 -100 0
-99 -101 0
-99 -102 0
-99 -103 0
-99 -104 0
-100 -101 0
-100 -102 0
-100 -103 0
-100 -104 0
-101 -102 0
-101 -103 0
-101 -104 0
-102 -103 0
-102 -104 0
-103 -104 0
-105 -106 0
-105 -107 0
-105 -108 0
-105 -109 0
-105 -110 0
-105 -111 0
-105 -112 0
-105 -113 0
-105 -114 0
-105 -115 0
-105 -116 0
-105 -117 0
-106 -107 0
-106 -108 0
-106 -109 0
-106 -110 0
-106 -111 0
-106 -112 0
-106 -113 0
-106 -114 0
-106 -115 0
-106 -116 0
-106 -117 0
-107 -108 0
-107 -109 0
-107 -110 0
-107 -111 0
-107 -112 0
-107 -113 0
-107 -114 0
-107 -115 0
-107 -116 0
-107 -117 0
-108 -109 0
-108 -110 0
-108 -111 0
-108 -112 0
-108 -113 0
-108 -114 0
-108 -115 0
-108 -116 0
-108 -117 0
-109 -110 0
-109 -111 0
-109 -112 0
-109 -113 0
-109 -114 0
-109 -115 0
-109 -116 0
-109 -117 0
-110 -111 0
-110 -112 0
-110 -113 0
-110 -114 0
-110 -115 0
-110 -116 0
-110 -117 0
-111 -112 0
-111 -113 0
-111 -114 0
-111 -115 0
-111 -116 0
-111 -117 0
-112 -113 0
-112 -114 0
-112 -115 0
-112 -116 0
-112 -117 0
-113 -114 0
-113 -115 0
-113 -116 0
-113 -117 0
-114 -115 0
-114 -116 0
-114 -117 0
-115 -116 0
-115 -117 0
-116 -117 0
-118 -119 0
-118 -120 0
-118 -121 0
-118 -122 0
-118 -123 0
-118 -124 0
-118 -125 0
-118 -126 0
-118 -127 0
-118 -128 0
-118 -129 0
-118 -130 0
-119 -120 0
-119 -121 0
-119 -122 0
-119 -123 0
-119 -124 0
-119 -125 0
-119 -126 0
-119 -127 0
-119 -128 0
-119 -129 0
-119 -130 0
-120 -121 0
-120 -122 0
-120 -123 0
-120 -124 0
-120 -125 0
-120 -126 0
-120 -127 0
-120 -128 0
-120 -129 0
-120 -130 0
-121 -122 0
-121 -123 0
-121 -124 0
-121 -125 0
-121 -126 0
-121 -127 0
-121 -128 0
-121 -129 0
-121 -130 0
-122 -123 0
-122 -124 0
-122 -125 0
-122 -126 0
-122 -127 0
-122 -128 0
-122 -129 0
-122 -130 0
-123 -124 0
-123 -125 0
-123 -126 0
-123 -127 0
-123 -128 0
-123 -129 0
-123 -130 0
-124 -125 0
-124 -126 0
-124 -127 0
-124 -128 0
-124 -129 0
-124 -130 0
-125 -126 0
-125 -127 0
-125 -128 0
-125 -129 0
-125 -130 0
-126 -127 0
-126 -128 0
-126 -129 0
-126 -130 0
-127 -128 0
-127 -129 0
-127 -130 0
-128 -129 0
-128 -130 0
-129 -130 0
-131 -132 0
-131 -133 0
-131 -134 0
-131 -135 0
-131 -136 0
-131 -137 0
-131 -138 0
-131 -139 0
-131 -140 0
-131 -141 0
-131 -142 0
-131 -143 0
-132 -133 0
-132 -134 0
-132 -135 0
-132 -136 0
-132 -137 0
-132 -138 0
-132 -139 0
-132 -140 0
-132 -141 0
-132 -142 0
-132 -143 0
-133 -134 0
-133 -135 0
-133 -136 0
-133 -137 0
-133 -138 0
-133 -139 0
-133 -140 0
-133 -141 0
-133 -142 0
-133 -143 0
-134 -135 0
-134 -136 0
-134 -137 0
-134 -138 0
-134 -139 0
-134 -140 0
-134 -141 0
-134 -142 0
-134 -143 0
-135 -136 0
-135 -137 0
-135 -138 0
-135 -139 0
-135 -140 0
-135 -141 0
-135 -142 0
-135 -143 0
-136 -137 0
-136 -138 0
-136 -139 0
-136 -140 0
-136 -141 0
-136 -142 0
-136 -143 0
-137 -138 0
-137 -139 0
-137 -140 0
-137 -141 0
-137 -142 0
-137 -143 0
-138 -139 0
-138 -140 0
-138 -141 0
-138 -142 0
-138 -143 0
-139 -140 0
-139 -141 0
-139 -142 0
-139 -143 0
-140 -141 0
-140 -142 0
-140 -143 0
-141 -142 0
-141 -143 0
-142 -143 0
-144 -145 0
-144 -146 0
-144 -147 0
-144 -148 0
-144 -149 0
-144 -150 0
-144 -151 0
-144 -152 0
-144 -153 0
-144 -154 0
-144 -155 0
-144 -156 0
-145 -146 0
-145 -147 0
-145 -148 0
-145 -149 0
-145 -150 0
-145 -151 0
-145 -152 0
-145 -153 0
-145 -154 0
-145 -155 0
-145 -156 0
-146 -147 0
-146 -148 0
-146 -149 0
-146 -150 0
-146 -151 0
-146 -152 0
-146 -153 0
-146 -154 0
-146 -155 0
-146 -156 0
-147 -148 0
-147 -149 0
-147 -150 0
-147 -151 0
-147 -152 0
-147 -153 0
-147 -154 0
-147 -155 0
-147 -156 0
-148 -149 0
-148 -150 0
-148 -151 0
-148 -152 0
-148 -153 0
-148 -154 0
-148 -155 0
-148 -156 0
-149 -150 0
-149 -151 0
-149 -152 0
-149 -153 0
-149 -154 0
-149 -155 0
-149 -156 0
-150 -151 0
-150 -152 0
-150 -153 0
-150 -154 0
-150 -155 0
-150 -156 0
-151 -152 0
-151 -153 0
-151 -154 0
-151 -155 0
-151 -156 0
-152 -153 0
-152 -154 0
-152 -155 0
-152 -156 0
-153 -154 0
-153 -155 0
-153 -156 0
-154 -155 0
-154 -156 0
-155 -156 0
-157 -158 0
-157 -159 0
-157 -160 0
-157 -161 0
-157 -162 0
-157 -163 0
-157 -164 0
-157 -165 0
-157 -166 0
-157 -167 0
-157 -168 0
-157 -169 0
-158 -159 0
-158 -160 0
-158 -161 0
-158 -162 0
-158 -163 0
-158 -164 0
-158 -165 0
-158 -166 0
-158 -167 0
-158 -168 0
-158 -169 0
-159 -160 0
-159 -161 0
-159 -162 0
-159 -163 0
-159 -164 0
-159 -165 0
-159 -166 0
-159 -167 0
-159 -168 0
-159 -169 0
-160 -161 0
-160 -162 0
-160 -163 0
-160 -164 0
-160 -165 0
-160 -166 0
-160 -167 0
-160 -168 0
-160 -169 0
-161 -162 0
-161 -163 0
-161 -164 0
-161 -165 0
-161 -166 0
-161 -167 0
-161 -168 0
-161 -169 0
-162 -163 0
-162 -164 0
-162 -165 0
-162 -166 0
-162 -167 0
-162 -168 0
-162 -169 0
-163 -164 0
-163 -165 0
-163 -166 0
-163 -167 0
-163 -168 0
-163 -169 0
-164 -165 0
-164 -166 0
-164 -167 0
-164 -168 0
-164 -169 0
-165 -166 0
-165 -167 0
-165 -168 0
-165 -169 0
-166 -167 0
-166 -168 0
-166 -169 0
-167 -168 0
-167 -169 0
-168 -169 0
1 14 27 40 53 66 79 92 105 118 131 144 157 0
2 15 28 41 54 67 80 93 106 119 132 145 158 0
3 16 29 42 55 68 81 94 107 120 133 146 159 0
4 17 30 43 56 69 82 95 108 121 134 147 160 0
5 18 31 44 57 70 83 96 109 122 135 148 161 0
6 19 32 45 58 71 84 97 110 123 136 149 162 0
7 20 33 46 59 72 85 98 111 124 137 150 163 0
8 21 34 47 60 73 86 99 112 125 138 151 164 0
9 22 35 48 61 74 87 100 113 126 139 152 165 0
10 23 36 49 62 75 88 101 114 127 140 153 166 0
11 24 37 50 63 76 89 102 115 128 141 154 167 0
12 25 38 51 64 77 90 103 116 129 142 155 168 0
13 26 39 52 65 78 91 104 117 130 143 156 169 0
-1 170 171 172 0
-170 1 0
-171 1 0
-172 1 0
-2 173 0
-173 2 0
-3 174 0
-174 3 0
-4 175 176 177 0
-175 4 0
-176 4 0
-177 4 0
-5 178 179 0
-178 5 0
-179 5 0
-6 180 0
-180 6 0
-7 181 0
-181 7 0
-8 182 183 184 0
-182 8 0
-183 8 0
-184 8 0
-9 185 186 187 0
-185 9 0
-186 9 0
-187 9 0
-10 188 189 0
-188 10 0
-189 10 0
-11 190 0
-190 11 0
-12 191 192 193 0
-191 12 0
-192 12 0
-193 12 0
-13 0
-14 194 195 196 0
-194 14 0
-195 14 0
-196 14 0
-15 197 0
-197 15 0
-16 198 0
-198 16 0
-17 199 200 201 0
-199 17 0
-200 17 0
-201 17 0
-18 202 203 0
-202 18 0
-203 18 0
-19 204 0
-204 19 0
-20 205 0
-205 20 0
-21 206 207 208 0
-206 21 0
-207 21 0
-208 21 0
-22 209 210 211 0
-209 22 0
-210 22 0
-211 22 0
-23 212 213 0
-212 23 0
-213 23 0
-24 214 0
-214 24 0
-25 215 216 217 0
-215 25 0
-216 25 0
-217 25 0
-26 0
-27 218 219 220 0
-218 27 0
-219 27 0
-220 27 0
-28 221 0
-221 28 0
-29 222 0
-222 29 0
-30 223 224 225 0
-223 30 0
-224 30 0
-225 30 0
-31 226 227 0
-226 31 0
-227 31 0
-32 228 0
-228 32 0
-33 229 0
-229 33 0
-34 230 231 232 0
-230 34 0
-231 34 0
-232 34 0
-35 233 234 235 0
-233 35 0
-234 35 0
-235 35 0
-36 236 237 0
-236 36 0
-237 36 0
-37 238 0
-238 37 0
-38 239 240 241 0
-239 38 0
-240 38 0
-241 38 0
-39 0
-40 242 243 244 0
-242 40 0
-243 40 0
-244 40 0
-41 245 0
-245 41 0
-42 246 0
-246 42 0
-43 247 248 249 0
-247 43 0
-248 43 0
-249 43 0
-44 250 251 0
-250 44 0
-251 44 0
-45 252 0
-252 45 0
-46 253 0
-253 46 0
-47 254 255 256 0
-254 47 0
-255 47 0
-256 47 0
-48 257 258 259 0
-257 48 0
-258 48 0
-259 48 0
-49 260 261 0
-260 49 0
-261 49 0
-50 262 0
-262 50 0
-51 263 264 265 0
-263 51 0
-264 51 0
-265 51 0
-52 0
-53 266 267 268 0
-266 53 0
-267 53 0
-268 53 0
-54 269 0
-269 54 0
-55 270 0
-270 55 0
-56 271 272 273 0
-271 56 0
-272 56 0
-273 56 0
-57 274 275 0
-274 57 0
-275 57 0
-58 276 0
-276 58 0
-59 277 0
-277 59 0
-60 278 279 280 0
-278 60 0
-279 60 0
-280 60 0
-61 281 282 283 0
-281 61 0
-282 61 0
-283 61 0
-62 284 285 0
-284 62 0
-285 62 0
-63 286 0
-286 63 0
-64 287 288 289 0
-287 64 0
-288 64 0
-289 64 0
-65 0
-66 290 291 292 0
-290 66 0
-291 66 0
-292 66 0
-67 293 0
-293 67 0
-68 294 0
-294 68 0
-69 295 296 297 0
-295 69 0
-296 69 0
-297 69 0
-70 298 299 0
-298 70 0
-299 70 0
-71 300 0
-300 71 0
-72 301 0
-301 72 0
-73 302 303 304 0
-302 73 0
-303 73 0
-304 73 0
-74 305 306 307 0
-305 74 0
-306 74 0
-307 74 0
-75 308 309 0
-308 75 0
-309 75 0
-76 310 0
-310 76 0
-77 311 312 313 0
-311 77 0
-312 77 0
-313 77 0
-78 0
-79 314 315 316 0
-314 79 0
-315 79 0
-316 79 0
-80 317 0
-317 80 0
-81 318 0
-318 81 0
-82 319 320 321 0
-319 82 0
-320 82 0
-321 82 0
-83 322 323 0
-322 83 0
-323 83 0
-84 324 0
-324 84 0
-85 325 0
-325 85 0
-86 326 327 328 0
-326 86 0
-327 86 0
-328 86 0
-87 329 330 331 0
-329 87 0
-330 87 0
-331 87 0
-88 332 333 0
-332 88 0
-333 88 0
-89 334 0
-334 89 0
-90 335 336 337 0
-335 90 0
-336 90 0
-337 90 0
-91 0
-92 338 339 340 0
-338 92 0
-339 92 0
-340 92 0
-93 341 0
-341 93 0
-94 342 0
-342 94 0
-95 343 344 345 0
-343 95 0
-344 95 0
-345 95 0
-96 346 347 0
-346 96 0
-347 96 0
-97 348 0
-348 97 0
-98 349 0
-349 98 0
-99 350 351 352 0
-350 99 0
-351 99 0
-352 99 0
-100 353 354 355 0
-353 100 0
-354 100 0
-355 100 0
-101 356 357 0
-356 101 0
-357 101 0
-102 358 0
-358 102 0
-103 359 360 361 0
-359 103 0
-360 103 0
-361 103 0
-104 0
-105 362 363 364 0
-362 105 0
-363 105 0
-364 105 0
-106 365 0
-365 106 0
-107 366 0
-366 107 0
-108 367 368 369 0
-367 108 0
-368 108 0
-369 108 0
-109 370 371 0
-370 109 0
-371 109 0
-110 372 0
-372 110 0
-111 373 0
-373 111 0
-112 374 375 376 0
-374 112 0
-375 112 0
-376 112 0
-113 377 378 379 0
-377 113 0
-378 113 0
-379 113 0
-114 380 381 0
-380 114 0
-381 114 0
-115 382 0
-382 115 0
-116 383 384 385 0
-383 116 0
-384 116 0
-385 116 0
-117 0
-118 386 387 388 0
-386 118 0
-387 118 0
-388 118 0
-119 389 0
-389 119 0
-120 390 0
-390 120 0
-121 391 392 393 0
-391 121 0
-392 121 0
-393 121 0
-122 394 395 0
-394 122 0
-395 122 0
-123 396 0
-396 123 0
-124 397 0
-397 124 0
-125 398 399 400 0
-398 125 0
-399 125 0
-400 125 0
-126 401 402 403 0
-401 126 0
-402 126 0
-403 126 0
-127 404 405 0
-404 127 0
-405 127 0
-128 406 0
-406 128 0
-129 407 408 409 0
-407 129 0
-408 129 0
-409 129 0
-130 0
-131 410 411 412 0
-410 131 0
-411 131 0
-412 131 0
-132 413 0
-413 132 0
-133 414 0
-414 133 0
-134 415 416 417 0
-415 134 0
-416 134 0
-417 134 0
-135 418 419 0
-418 135 0
-419 135 0
-136 420 0
-420 136 0
-137 421 0
-421 137 0
-138 422 423 424 0
-422 138 0
-423 138 0
-424 138 0
-139 425 426 427 0
-425 139 0
-426 139 0
-427 139 0
-140 428 429 0
-428 140 0
-429 140 0
-141 430 0
-430 141 0
-142 431 432 433 0
-431 142 0
-432 142 0
-433 142 0
-143 0
-144 434 435 436 0
-434 144 0
-435 144 0
-436 144 0
-145 437 0
-437 145 0
-146 438 0
-438 146 0
-147 439 440 441 0
-439 147 0
-440 147 0
-441 147 0
-148 442 443 0
-442 148 0
-443 148 0
-149 444 0
-444 149 0
-150 445 0
-445 150 0
-151 446 447 448 0
-446 151 0
-447 151 0
-448 151 0
-152 449 450 451 0
-449 152 0
-450 152 0
-451 152 0
-153 452 453 0
-452 153 0
-453 153 0
-154 454 0
-454 154 0
-155 455 456 457 0
-455 155 0
-456 155 0
-457 155 0
-156 0
-157 458 459 460 0
-458 157 0
-459 157 0
-460 157 0
-158 461 0
-461 158 0
-159 462 0
-462 159 0
-160 463 464 465 0
-463 160 0
-464 160 0
-465 160 0
-161 466 467 0
-466 161 0
-467 161 0
-162 468 0
-468 162 0
-163 469 0
-469 163 0
-164 470 471 472 0
-470 164 0
-471 164 0
-472 164 0
-165 473 474 475 0
-473 165 0
-474 165 0
-475 165 0
-166 476 477 0
-476 166 0
-477 166 0
-167 478 0
-478 167 0
-168 479 480 481 0
-479 168 0
-480 168 0
-481 168 0
-169 0
-170 0
-171 0
-172 0
-173 0
-174 0
-175 0
-176 0
-177 0
-178 0
-179 0
-179 0
-180 0
-181 0
-182 0
-183 0
-183 0
-185 0
-185 0
-187 0
-189 0
-190 0
-191 0
-192 0
-193 0
-194 2 0
-195 3 0
-196 7 0
-197 1 0
-198 1 0
-199 5 0
-200 6 0
-201 8 0
-202 4 0
-203 8 0
-203 9 0
-204 4 0
-205 1 0
-206 4 0
-207 5 0
-207 9 0
-209 5 0
-209 8 0
-211 12 0
-213 12 0
-214 12 0
-215 9 0
-216 10 0
-217 11 0
-218 2 15 0
-219 3 16 0
-220 7 20 0
-221 1 14 0
-222 1 14 0
-223 5 18 0
-224 6 19 0
-225 8 21 0
-226 4 17 0
-227 8 21 0
-227 9 22 0
-228 4 17 0
-229 1 14 0
-230 4 17 0
-231 5 18 0
-231 9 22 0
-233 5 18 0
-233 8 21 0
-235 12 25 0
-237 12 25 0
-238 12 25 0
-239 9 22 0
-240 10 23 0
-241 11 24 0
-242 2 15 28 0
-243 3 16 29 0
-244 7 20 33 0
-245 1 14 27 0
-246 1 14 27 0
-247 5 18 31 0
-248 6 19 32 0
-249 8 21 34 0
-250 4 17 30 0
-251 8 21 34 0
-251 9 22 35 0
-252 4 17 30 0
-253 1 14 27 0
-254 4 17 30 0
-255 5 18 31 0
-255 9 22 35 0
-257 5 18 31 0
-257 8 21 34 0
-259 12 25 38 0
-261 12 25 38 0
-262 12 25 38 0
-263 9 22 35 0
-264 10 23 36 0
-265 11 24 37 0
-266 2 15 28 41 0
-267 3 16 29 42 0
-268 7 20 33 46 0
-269 1 14 27 40 0
-270 1 14 27 40 0
-271 5 18 31 44 0
-272 6 19 32 45 0
-273 8 21 34 47 0
-274 4 17 30 43 0
-275 8 21 34 47 0
-275 9 22 35 48 0
-276 4 17 30 43 0
-277 1 14 27 40 0
-278 4 17 30 43 0
-279 5 18 31 44 0
-279 9 22 35 48 0
-281 5 18 31 44 0
-281 8 21 34 47 0
-283 12 25 38 51 0
-285 12 25 38 51 0
-286 12 25 38 51 0
-287 9 22 35 48 0
-288 10 23 36 49 0
-289 11 24 37 50 0
-290 2 15 28 41 54 0
-291 3 16 29 42 55 0
-292 7 20 33 46 59 0
-293 1 14 27 40 53 0
-294 1 14 27 40 53 0
-295 5 18 31 44 57 0
-296 6 19 32 45 58 0
-297 8 21 34 47 60 0
-298 4 17 30 43 56 0
-299 8 21 34 47 60 0
-299 9 22 35 48 61 0
-300 4 17 30 43 56 0
-301 1 14 27 40 53 0
-302 4 17 30 43 56 0
-303 5 18 31 44 57 0
-303 9 22 35 48 61 0
-305 5 18 31 44 57 0
-305 8 21 34 47 60 0
-307 12 25 38 51 64 0
-309 12 25 38 51 64 0
-310 12 25 38 51 64 0
-311 9 22 35 48 61 0
-312 10 23 36 49 62 0
-313 11 24 37 50 63 0
-314 2 15 28 41 54 67 0
-315 3 16 29 42 55 68 0
-316 7 20 33 46 59 72 0
-317 1 14 27 40 53 66 0
-318 1 14 27 40 53 66 0
-319 5 18 31 44 57 70 0
-320 6 19 32 45 58 71 0
-321 8 21 34 47 60 73 0
-322 4 17 30 43 56 69 0
-323 8 21 34 47 60 73 0
-323 9 22 35 48 61 74 0
-324 4 17 30 43 56 69 0
-325 1 14 27 40 53 66 0
-326 4 17 30 43 56 69 0
-327 5 18 31 44 57 70 0
-327 9 22 35 48 61 74 0
-329 5 18 31 44 57 70 0
-329 8 21 34 47 60 73 0
-331 12 25 38 51 64 77 0
-333 12 25 38 51 64 77 0
-334 12 25 38 51 64 77 0
-335 9 22 35 48 61 74 0
-336 10 23 36 49 62 75 0
-337 11 24 37 50 63 76 0
-338 2 15 28 41 54 67 80 0
-339 3 16 29 42 55 68 81 0
-340 7 20 33 46 59 72 85 0
-341 1 14 27 40 53 66 79 0
-342 1 14 27 40 53 66 79 0
-343 5 18 31 44 57 70 83 0
-344 6 19 32 45 58 71 84 0
-345 8 21 34 47 60 73 86 0
-346 4 17 30 43 56 69 82 0
-347 8 21 34 47 60 73 86 0
-347 9 22 35 48 61 74 87 0
-348 4 17 30 43 56 69 82 0
-349 1 14 27 40 53 66 79 0
-350 4 17 30 43 56 69 82 0
-351 5 18 31 44 57 70 83 0
-351 9 22 35 48 61 74 87 0
-353 5 18 31 44 57 70 83 0
-353 8 21 34 47 60 73 86 0
-355 12 25 38 51 64 77 90 0
-357 12 25 38 51 64 77 90 0
-358 12 25 38 51 64 77 90 0
-359 9 22 35 48 61 74 87 0
-360 10 23 36 49 62 75 88 0
-361 11 24 37 50 63 76 89 0
-362 2 15 28 41 54 67 80 93 0
-363 3 16 29 42 55 68 81 94 0
-364 7 20 33 46 59 72 85 98 0
-365 1 14 27 40 53 66 79 92 0
-366 1 14 27 40 53 66 79 92 0
-367 5 18 31 44 57 70 83 96 0
-368 6 19 32 45 58 71 84 97 0
-369 8 21 34 47 60 73 86 99 0
-370 4 17 30 43 56 69 82 95 0
-371 8 21 34 47 60 73 86 99 0
-371 9 22 35 48 61 74 87 100 0
-372 4 17 30 43 56 69 82 95 0
-373 1 14 27 40 53 66 79 92 0
-374 4 17 30 43 56 69 82 95 0
-375 5 18 31 44 57 70 83 96 0
-375 9 22 35 48 61 74 87 100 0
-377 5 18 31 44 57 70 83 96 0
-377 8 21 34 47 60 73 86 99 0
-379 12 25 38 51 64 77 90 103 0
-381 12 25 38 51 64 77 90 103 0
-382 12 25 38 51 64 77 90 103 0
-383 9 22 35 48 61 74 87 100 0
-384 10 23 36 49 62 75 88 101 0
-385 11 24 37 50 63 76 89 102 0
-386 2 15 28 41 54 67 80 93 106 0
-387 3 16 29 42 55 68 81 94 107 0
-388 7 20 33 46 59 72 85 98 111 0
-389 1 14 27 40 53 66 79 92 105 0
-390 1 14 27 40 53 66 79 92 105 0
-391 5 18 31 44 57 70 83 96 109 0
-392 6 19 32 45 58 71 84 97 110 0
-393 8 21 34 47 60 73 86 99 112 0
-394 4 17 30 43 56 69 82 95 108 0
-395 8 21 34 47 60 73 86 99 112 0
-395 9 22 35 48 61 74 87 100 113 0
-396 4 17 30 43 56 69 82 95 108 0
-397 1 14 27 40 53 66 79 92 105 0
-398 4 17 30 43 56 69 82 95 108 0
-399 5 18 31 44 57 70 83 96 109 0
-399 9 22 35 48 61 74 87 100 113 0
-401 5 18 31 44 57 70 83 96 109 0
-401 8 21 34 47 60 73 86 99 112 0
-403 12 25 38 51 64 77 90 103 116 0
-405 12 25 38 51 64 77 90 103 116 0
-406 12 25 38 51 64 77 90 103 116 0
-407 9 22 35 48 61 74 87 100 113 0
-408 10 23 36 49 62 75 88 101 114 0
-409 11 24 37 50 63 76 89 102 115 0
-410 2 15 28 41 54 67 80 93 106 119 0
-411 3 16 29 42 55 68 81 94 107 120 0
-412 7 20 33 46 59 72 85 98 111 124 0
-413 1 14 27 40 53 66 79 92 105 118 0
-414 1 14 27 40 53 66 79 92 105 118 0
-415 5 18 31 44 57 70 83 96 109 122 0
-416 6 19 32 45 58 71 84 97 110 123 0
-417 8 21 34 47 60 73 86 99 112 125 0
-418 4 17 30 43 56 69 82 95 108 121 0
-419 8 21 34 47 60 73 86 99 112 125 0
-419 9 22 35 48 61 74 87 100 113 126 0
-420 4 17 30 43 56 69 82 95 108 121 0
-421 1 14 27 40 53 66 79 92 105 118 0
-422 4 17 30 43 56 69 82 95 108 121 0
-423 5 18 31 44 57 70 83 96 109 122 0
-423 9 22 35 48 61 74 87 100 113 126 0
-425 5 18 31 44 57 70 83 96 109 122 0
-425 8 21 34 47 60 73 86 99 112 125 0
-427 12 25 38 51 64 77 90 103 116 129 0
-429 12 25 38 51 64 77 90 103 116 129 0
-430 12 25 38 51 64 77 90 103 116 129 0
-431 9 22 35 48 61 74 87 100 113 126 0
-432 10 23 36 49 62 75 88 101 114 127 0
-433 11 24 37 50 63 76 89 102 115 128 0
-434 2 15 28 41 54 67 80 93 106 119 132 0
-435 3 16 29 42 55 68 81 94 107 120 133 0
-436 7 20 33 46 59 72 85 98 111 124 137 0
-437 1 14 27 40 53 66 79 92 105 118 131 0
-438 1 14 27 40 53 66 79 92 105 118 131 0
-439 5 18 31 44 57 70 83 96 109 122 135 0
-440 6 19 32 45 58 71 84 97 110 123 136 0
-441 8 21 34 47 60 73 86 99 112 125 138 0
-442 4 17 30 43 56 69 82 95 108 121 134 0
-443 8 21 34 47 60 73 86 99 112 125 138 0
-443 9 22 35 48 61 74 87 100 113 126 139 0
-444 4 17 30 43 56 69 82 95 108 121 134 0
-445 1 14 27 40 53 66 79 92 105 118 131 0
-446 4 17 30 43 56 69 82 95 108 121 134 0
-447 5 18 31 44 57 70 83 96 109 122 135 0
-447 9 22 35 48 61 74 87 100 113 126 139 0
-449 5 18 31 44 57 70 83 96 109 122 135 0
-449 8 21 34 47 60 73 86 99 112 125 138 0
-451 12 25 38 51 64 77 90 103 116 129 142 0
-453 12 25 38 51 64 77 90 103 116 129 142 0
-454 12 25 38 51 64 77 90 103 116 129 142 0
-455 9 22 35 48 61 74 87 100 113 126 139 0
-456 10 23 36 49 62 75 88 101 114 127 140 0
-457 11 24 37 50 63 76 89 102 115 128 141 0
-458 2 15 28 41 54 67 80 93 106 119 132 145 0
-459 3 16 29 42 55 68 81 94 107 120 133 146 0
-460 7 20 33 46 59 72 85 98 111 124 137 150 0
-461 1 14 27 40 53 66 79 92 105 118 131 144 0
-462 1 14 27 40 53 66 79 92 105 118 131 144 0
-463 5 18 31 44 57 70 83 96 109 122 135 148 0
-464 6 19 32 45 58 71 84 97 110 123 136 149 0
-465 8 21 34 47 60 73 86 99 112 125 138 151 0
-466 4 17 30 43 56 69 82 95 108 121 134 147 0
-467 8 21 34 47 60 73 86 99 112 125 138 151 0
-467 9 22 35 48 61 74 87 100 113 126 139 152 0
-468 4 17 30 43 56 69 82 95 108 121 134 147 0
-469 1 14 27 40 53 66 79 92 105 118 131 144 0
-470 4 17 30 43 56 69 82 95 108 121 134 147 0
-471 5 18 31 44 57 70 83 96 109 122 135 148 0
-471 9 22 35 48 61 74 87 100 113 126 139 152 0
-473 5 18 31 44 57 70 83 96 109 122 135 148 0
-473 8 21 34 47 60 73 86 99 112 125 138 151 0
-475 12 25 38 51 64 77 90 103 116 129 142 155 0
-477 12 25 38 51 64 77 90 103 116 129 142 155 0
-478 12 25 38 51 64 77 90 103 116 129 142 155 0
-479 9 22 35 48 61 74 87 100 113 126 139 152 0
-480 10 23 36 49 62 75 88 101 114 127 140 153 0
-481 11 24 37 50 63 76 89 102 115 128 141 154 0
