p cnf 468 1807
-1 -2 0
-1 -3 0
-1 -4 0
-1 -5 0
-1 -6 0
-1 -7 0
-1 -8 0
-1 -9 0
-1 -10 0
-1 -11 0
-1 -12 0
-1 -13 0
-2 -3 0
-2 -4 0
-2 -5 0
-2 -6 0
-2 -7 0
-2 -8 0
-2 -9 0
-2 -10 0
-2 -11 0
-2 -12 0
-2 -13 0
-3 -4 0
-3 -5 0
-3 -6 0
-3 -7 0
-3 -8 0
-3 -9 0
-3 -10 0
-3 -11 0
-3 -12 0
-3 -13 0
-4 -5 0
-4 -6 0
-4 -7 0
-4 -8 0
-4 -9 0
-4 -10 0
-4 -11 0
-4 -12 0
-4 -13 0
-5 -6 0
-5 -7 0
-5 -8 0
-5 -9 0
-5 -10 0
-5 -11 0
-5 -12 0
-5 -13 0
-6 -7 0
-6 -8 0
-6 -9 0
-6 -10 0
-6 -11 0
-6 -12 0
-6 -13 0
-7 -8 0
-7 -9 0
-7 -10 0
-7 -11 0
-7 -12 0
-7 -13 0
-8 -9 0
-8 -10 0
-8 -11 0
-8 -12 0
-8 -13 0
-9 -10 0
-9 -11 0
-9 -12 0
-9 -13 0
-10 -11 0
-10 -12 0
-10 -13 0
-11 -12 0
-11 -13 0
-12 -13 0
-14 -15 0
-14 -16 0
-14 -17 0
-14 -18 0
-14 -19 0
-14 -20 0
-14 -21 0
-14 -22 0
-14 -23 0
-14 -24 0
-14 -25 0
-14 -26 0
-15 -16 0
-15 -17 0
-15 -18 0
-15 -19 0
-15 -20 0
-15 -21 0
-15 -22 0
-15 -23 0
-15 -24 0
-15 -25 0
-15 -26 0
-16 -17 0
-16 -18 0
-16 -19 0
-16 -20 0
-16 -21 0
-16 -22 0
-16 -23 0
-16 -24 0
-16 -25 0
-16 -26 0
-17 -18 0
-17 -19 0
-17 -20 0
-17 -21 0
-17 -22 0
-17 -23 0
-17 -24 0
-17 -25 0
-17 -26 0
-18 -19 0
-18 -20 0
-18 -21 0
-18 -22 0
-18 -23 0
-18 -24 0
-18 -25 0
-18 -26 0
-19 -20 0
-19 -21 0
-19 -22 0
-19 -23 0
-19 -24 0
-19 -25 0
-19 -26 0
-20 -21 0
-20 -22 0
-20 -23 0
-20 -24 0
-20 -25 0
-20 -26 0
-21 -22 0
-21 -23 0
-21 -24 0
-21 -25 0
-21 -26 0
-22 -23 0
-22 -24 0
-22 -25 0
-22 -26 0
-23 -24 0
-23 -25 0
-23 -26 0
-24 -25 0
-24 -26 0
-25 -26 0
-27 -28 0
-27 -29 0
-27 -30 0
-27 -31 0
-27 -32 0
-27 -33 0
-27 -34 0
-27 -35 0
-27 -36 0
-27 -37 0
-27 -38 0
-27 -39 0
-28 -29 0
-28 -30 0
-28 -31 0
-28 -32 0
-28 -33 0
-28 -34 0
-28 -35 0
-28 -36 0
-28 -37 0
-28 -38 0
-28 -39 0
-29 -30 0
-29 -31 0
-29 -32 0
-29 -33 0
-29 -34 0
-29 -35 0
-29 -36 0
-29 -37 0
-29 -38 0
-29 -39 0
-30 -31 0
-30 -32 0
-30 -33 0
-30 -34 0
-30 -35 0
-30 -36 0
-30 -37 0
-30 -38 0
-30 -39 0
-31 -32 0
-31 -33 0
-31 -34 0
-31 -35 0
-31 -36 0
-31 -37 0
-31 -38 0
-31 -39 0
-32 -33 0
-32 -34 0
-32 -35 0
-32 -36 0
-32 -37 0
-32 -38 0
-32 -39 0
-33 -34 0
-33 -35 0
-33 -36 0
-33 -37 0
-33 -38 0
-33 -39 0
-34 -35 0
-34 -36 0
-34 -37 0
-34 -38 0
-34 -39 0
-35 -36 0
-35 -37 0
-35 -38 0
-35 -39 0
-36 -37 0
-36 -38 0
-36 -39 0
-37 -38 0
-37 -39 0
-38 -39 0
-40 -41 0
-40 -42 0
-40 -43 0
-40 -44 0
-40 -45 0
-40 -46 0
-40 -47 0
-40 -48 0
-40 -49 0
-40 -50 0
-40 -51 0
-40 -52 0
-41 -42 0
-41 -43 0
-41 -44 0
-41 -45 0
-41 -46 0
-41 -47 0
-41 -48 0
-41 -49 0
-41 -50 0
-41 -51 0
-41 -52 0
-42 -43 0
-42 -44 0
-42 -45 0
-42 -46 0
-42 -47 0
-42 -48 0
-42 -49 0
-42 -50 0
-42 -51 0
-42 -52 0
-43 -44 0
-43 -45 0
-43 -46 0
-43 -47 0
-43 -48 0
-43 -49 0
-43 -50 0
-43 -51 0
-43 -52 0
-44 -45 0
-44 -46 0
-44 -47 0
-44 -48 0
-44 -49 0
-44 -50 0
-44 -51 0
-44 -52 0
-45 -46 0
-45 -47 0
-45 -48 0
-45 -49 0
-45 -50 0
-45 -51 0
-45 -52 0
-46 -47 0
-46 -48 0
-46 -49 0
-46 -50 0
-46 -51 0
-46 -52 0
-47 -48 0
-47 -49 0
-47 -50 0
-47 -51 0
-47 -52 0
-48 -49 0
-48 -50 0
-48 -51 0
-48 -52 0
-49 -50 0
-49 -51 0
-49 -52 0
-50 -51 0
-50 -52 0
-51 -52 0
-53 -54 0
-53 -55 0
-53 -56 0
-53 -57 0
-53 -58 0
-53 -59 0
-53 -60 0
-53 -61 0
-53 -62 0
-53 -63 0
-53 -64 0
-53 -65 0
-54 -55 0
-54 -56 0
-54 -57 0
-54 -58 0
-54 -59 0
-54 -60 0
-54 -61 0
-54 -62 0
-54 -63 0
-54 -64 0
-54 -65 0
-55 -56 0
-55 -57 0
-55 -58 0
-55 -59 0
-55 -60 0
-55 -61 0
-55 -62 0
-55 -63 0
-55 -64 0
-55 -65 0
-56 -57 0
-56 -58 0
-56 -59 0
-56 -60 0
-56 -61 0
-56 -62 0
-56 -63 0
-56 -64 0
-56 -65 0
-57 -58 0
-57 -59 0
-57 -60 0
-57 -61 0
-57 -62 0
-57 -63 0
-57 -64 0
-57 -65 0
-58 -59 0
-58 -60 0
-58 -61 0
-58 -62 0
-58 -63 0
-58 -64 0
-58 -65 0
-59 -60 0
-59 -61 0
-59 -62 0
-59 -63 0
-59 -64 0
-59 -65 0
-60 -61 0
-60 -62 0
-60 -63 0
-60 -64 0
-60 -65 0
-61 -62 0
-61 -63 0
-61 -64 0
-61 -65 0
-62 -63 0
-62 -64 0
-62 -65 0
-63 -64 0
-63 -65 0
-64 -65 0
-66 -67 0
-66 -68 0
-66 -69 0
-66 -70 0
-66 -71 0
-66 -72 0
-66 -73 0
-66 -74 0
-66 -75 0
-66 -76 0
-66 -77 0
-66 -78 0
-67 -68 0
-67 -69 0
-67 -70 0
-67 -71 0
-67 -72 0
-67 -73 0
-67 -74 0
-67 -75 0
-67 -76 0
-67 -77 0
-67 -78 0
-68 -69 0
-68 -70 0
-68 -71 0
-68 -72 0
-68 -73 0
-68 -74 0
-68 -75 0
-68 -76 0
-68 -77 0
-68 -78 0
-69 -70 0
-69 -71 0
-69 -72 0
-69 -73 0
-69 -74 0
-69 -75 0
-69 -76 0
-69 -77 0
-69 -78 0
-70 -71 0
-70 -72 0
-70 -73 0
-70 -74 0
-70 -75 0
-70 -76 0
-70 -77 0
-70 -78 0
-71 -72 0
-71 -73 0
-71 -74 0
-71 -75 0
-71 -76 0
-71 -77 0
-71 -78 0
-72 -73 0
-72 -74 0
-72 -75 0
-72 -76 0
-72 -77 0
-72 -78 0
-73 -74 0
-73 -75 0
-73 -76 0
-73 -77 0
-73 -78 0
-74 -75 0
-74 -76 0
-74 -77 0
-74 -78 0
-75 -76 0
-75 -77 0
-75 -78 0
-76 -77 0
-76 -78 0
-77 -78 0
-79 -80 0
-79 -81 0
-79 -82 0
-79 -83 0
-79 -84 0
-79 -85 0
-79 -86 0
-79 -87 0
-79 -88 0
-79 -89 0
-79 -90 0
-79 -91 0
-80 -81 0
-80 -82 0
-80 -83 0
-80 -84 0
-80 -85 0
-80 -86 0
-80 -87 0
-80 -88 0
-80 -89 0
-80 -90 0
-80 -91 0
-81 -82 0
-81 -83 0
-81 -84 0
-81 -85 0
-81 -86 0
-81 -87 0
-81 -88 0
-81 -89 0
-81 -90 0
-81 -91 0
-82 -83 0
-82 -84 0
-82 -85 0
-82 -86 0
-82 -87 0
-82 -88 0
-82 -89 0
-82 -90 0
-82 -91 0
-83 -84 0
-83 -85 0
-83 -86 0
-83 -87 0
-83 -88 0
-83 -89 0
-83 -90 0
-83 -91 0
-84 -85 0
-84 -86 0
-84 -87 0
-84 -88 0
-84 -89 0
-84 -90 0
-84 -91 0
-85 -86 0
-85 -87 0
-85 -88 0
-85 -89 0
-85 -90 0
-85 -91 0
-86 -87 0
-86 -88 0
-86 -89 0
-86 -90 0
-86 -91 0
-87 -88 0
-87 -89 0
-87 -90 0
-87 -91 0
-88 -89 0
-88 -90 0
-88 -91 0
-89 -90 0
-89 -91 0
-90 -91 0
-92 -93 0
-92 -94 0
-92 -95 0
-92 -96 0
-92 -97 0
-92 -98 0
-92 -99 0
-92 -100 0
-92 -101 0
-92 -102 0
-92 -103 0
-92 -104 0
-93 -94 0
-93 -95 0
-93 -96 0
-93 -97 0
-93 -98 0
-93 -99 0
-93 -100 0
-93 -101 0
-93 -102 0
-93 -103 0
-93 -104 0
-94 -95 0
-94 -96 0
-94 -97 0
-94 -98 0
-94 -99 0
-94 -100 0
-94 -101 0
-94 -102 0
-94 -103 0
-94 -104 0
-95 -96 0
-95 -97 0
-95 -98 0
-95 -99 0
-95 -100 0
-95 -101 0
-95 -102 0
-95 -103 0
-95 -104 0
-96 -97 0
-96 -98 0
-96 -99 0
-96 -100 0
-96 -101 0
-96 -102 0
-96 -103 0
-96 -104 0
-97 -98 0
-97 -99 0
-97 -100 0
-97 -101 0
-97 -102 0
-97 -103 0
-97 -104 0
-98 -99 0
-98 -100 0
-98 -101 0
-98 -102 0
-98 -103 0
-98 -104 0
-99 -100 0
-99 -101 0
-99 -102 0
-99 -103 0
-99 -104 0
-100 -101 0
-100 -102 0
-100 -103 0
-100 -104 0
-101 -102 0
-101 -103 0
-101 -104 0
-102 -103 0
-102 -104 0
-103 -104 0
-105 -106 0
-105 -107 0
-105 -108 0
-105 -109 0
-105 -110 0
-105 -111 0
-105 -112 0
-105 -113 0
-105 -114 0
-105 -115 0
-105 -116 0
-105 -117 0
-106 -107 0
-106 -108 0
-106 -109 0
-106 -110 0
-106 -111 0
-106 -112 0
-106 -113 0
-106 -114 0
-106 -115 0
-106 -116 0
-106 -117 0
-107 -108 0
-107 -109 0
-107 -110 0
-107 -111 0
-107 -112 0
-107 -113 0
-107 -114 0
-107 -115 0
-107 -116 0
-107 -117 0
-108 -109 0
-108 -110 0
-108 -111 0
-108 -112 0
-108 -113 0
-108 -114 0
-108 -115 0
-108 -116 0
-108 -117 0
-109 -110 0
-109 -111 0
-109 -112 0
-109 -113 0
-109 -114 0
-109 -115 0
-109 -116 0
-109 -117 0
-110 -111 0
-110 -112 0
-110 -113 0
-110 -114 0
-110 -115 0
-110 -116 0
-110 -117 0
-111 -112 0
-111 -113 0
-111 -114 0
-111 -115 0
-111 -116 0
-111 -117 0
-112 -113 0
-112 -114 0
-112 -115 0
-112 -116 0
-112 -117 0
-113 -114 0
-113 -115 0
-113 -116 0
-113 -117 0
-114 -115 0
-114 -116 0
-114 -117 0
-115 -116 0
-115 -117 0
-116 -117 0
-118 -119 0
-118 -120 0
-118 -121 0
-118 -122 0
-118 -123 0
-118 -124 0
-118 -125 0
-118 -126 0
-118 -127 0
-118 -128 0
-118 -129 0
-118 -130 0
-119 -120 0
-119 -121 0
-119 -122 0
-119 -123 0
-119 -124 0
-119 -125 0
-119 -126 0
-119 -127 0
-119 -128 0
-119 -129 0
-119 -130 0
-120 -121 0
-120 -122 0
-120 -123 0
-120 -124 0
-120 -125 0
-120 -126 0
-120 -127 0
-120 -128 0
-120 -129 0
-120 -130 0
-121 -122 0
-121 -123 0
-121 -124 0
-121 -125 0
-121 -126 0
-121 -127 0
-121 -128 0
-121 -129 0
-121 -130 0
-122 -123 0
-122 -124 0
-122 -125 0
-122 -126 0
-122 -127 0
-122 -128 0
-122 -129 0
-122 -130 0
-123 -124 0
-123 -125 0
-123 -126 0
-123 -127 0
-123 -128 0
-123 -129 0
-123 -130 0
-124 -125 0
-124 -126 0
-124 -127 0
-124 -128 0
-124 -129 0
-124 -130 0
-125 -126 0
-125 -127 0
-125 -128 0
-125 -129 0
-125 -130 0
-126 -127 0
-126 -128 0
-126 -129 0
-126 -130 0
-127 -128 0
-127 -129 0
-127 -130 0
-128 -129 0
-128 -130 0
-129 -130 0
-131 -132 0
-131 -133 0
-131 -134 0
-131 -135 0
-131 -136 0
-131 -137 0
-131 -138 0
-131 -139 0
-131 -140 0
-131 -141 0
-131 -142 0
-131 -143 0
-132 -133 0
-132 -134 0
-132 -135 0
-132 -136 0
-132 -137 0
-132 -138 0
-132 -139 0
-132 -140 0
-132 -141 0
-132 -142 0
-132 -143 0
-133 -134 0
-133 -135 0
-133 -136 0
-133 -137 0
-133 -138 0
-133 -139 0
-133 -140 0
-133 -141 0
-133 -142 0
-133 -143 0
-134 -135 0
-134 -136 0
-134 -137 0
-134 -138 0
-134 -139 0
-134 -140 0
-134 -141 0
-134 -142 0
-134 -143 0
-135 -136 0
-135 -137 0
-135 -138 0
-135 -139 0
-135 -140 0
-135 -141 0
-135 -142 0
-135 -143 0
-136 -137 0
-136 -138 0
-136 -139 0
-136 -140 0
-136 -141 0
-136 -142 0
-136 -143 0
-137 -138 0
-137 -139 0
-137 -140 0
-137 -141 0
-137 -142 0
-137 -143 0
-138 -139 0
-138 -140 0
-138 -141 0
-138 -142 0
-138 -143 0
-139 -140 0
-139 -141 0
-139 -142 0
-139 -143 0
-140 -141 0
-140 -142 0
-140 -143 0
-141 -142 0
-141 -143 0
-142 -143 0
-144 -145 0
-144 -146 0
-144 -147 0
-144 -148 0
-144 -149 0
-144 -150 0
-144 -151 0
-144 -152 0
-144 -153 0
-144 -154 0
-144 -155 0
-144 -156 0
-145 -146 0
-145 -147 0
-145 -148 0
-145 -149 0
-145 -150 0
-145 -151 0
-145 -152 0
-145 -153 0
-145 -154 0
-145 -155 0
-145 -156 0
-146 -147 0
-146 -148 0
-146 -149 0
-146 -150 0
-146 -151 0
-146 -152 0
-146 -153 0
-146 -154 0
-146 -155 0
-146 -156 0
-147 -148 0
-147 -149 0
-147 -150 0
-147 -151 0
-147 -152 0
-147 -153 0
-147 -154 0
-147 -155 0
-147 -156 0
-148 -149 0
-148 -150 0
-148 -151 0
-148 -152 0
-148 -153 0
-148 -154 0
-148 -155 0
-148 -156 0
-149 -150 0
-149 -151 0
-149 -152 0
-149 -153 0
-149 -154 0
-149 -155 0
-149 -156 0
-150 -151 0
-150 -152 0
-150 -153 0
-150 -154 0
-150 -155 0
-150 -156 0
-151 -152 0
-151 -153 0
-151 -154 0
-151 -155 0
-151 -156 0
-152 -153 0
-152 -154 0
-152 -155 0
-152 -156 0
-153 -154 0
-153 -155 0
-153 -156 0
-154 -155 0
-154 -156 0
-155 -156 0
-157 -158 0
-157 -159 0
-157 -160 0
-157 -161 0
-157 -162 0
-157 -163 0
-157 -164 0
-157 -165 0
-157 -166 0
-157 -167 0
-157 -168 0
-157 -169 0
-158 -159 0
-158 -160 0
-158 -161 0
-158 -162 0
-158 -163 0
-158 -164 0
-158 -165 0
-158 -166 0
-158 -167 0
-158 -168 0
-158 -169 0
-159 -160 0
-159 -161 0
-159 -162 0
-159 -163 0
-159 -164 0
-159 -165 0
-159 -166 0
-159 -167 0
-159 -168 0
-159 -169 0
-160 -161 0
-160 -162 0
-160 -163 0
-160 -164 0
-160 -165 0
-160 -166 0
-160 -167 0
-160 -168 0
-160 -169 0
-161 -162 0
-161 -163 0
-161 -164 0
-161 -165 0
-161 -166 0
-161 -167 0
-161 -168 0
-161 -169 0
-162 -163 0
-162 -164 0
-162 -165 0
-162 -166 0
-162 -167 0
-162 -168 0
-162 -169 0
-163 -164 0
-163 -165 0
-163 -166 0
-163 -167 0
-163 -168 0
-163 -169 0
-164 -165 0
-164 -166 0
-164 -167 0
-164 -168 0
-164 -169 0
-165 -166 0
-165 -167 0
-165 -168 0
-165 -169 0
-166 -167 0
-166 -168 0
-166 -169 0
-167 -168 0
-167 -169 0
-168 -169 0
1 14 27 40 53 66 79 92 105 118 131 144 157 0
2 15 28 41 54 67 80 93 106 119 132 145 158 0
3 16 29 42 55 68 81 94 107 120 133 146 159 0
4 17 30 43 56 69 82 95 108 121 134 147 160 0
5 18 31 44 57 70 83 96 109 122 135 148 161 0
6 19 32 45 58 71 84 97 110 123 136 149 162 0
7 20 33 46 59 72 85 98 111 124 137 150 163 0
8 21 34 47 60 73 86 99 112 125 138 151 164 0
9 22 35 48 61 74 87 100 113 126 139 152 165 0
10 23 36 49 62 75 88 101 114 127 140 153 166 0
11 24 37 50 63 76 89 102 115 128 141 154 167 0
12 25 38 51 64 77 90 103 116 129 142 155 168 0
13 26 39 52 65 78 91 104 117 130 143 156 169 0
-1 0
-2 170 171 0
-170 2 0
-171 2 0
-3 172 173 174 0
-172 3 0
-173 3 0
-174 3 0
-4 175 176 0
-175 4 0
-176 4 0
-5 177 0
-177 5 0
-6 178 179 180 0
-178 6 0
-179 6 0
-180 6 0
-7 181 182 0
-181 7 0
-182 7 0
-8 183 184 0
-183 8 0
-184 8 0
-9 185 0
-185 9 0
-10 186 187 0
-186 10 0
-187 10 0
-11 188 189 0
-188 11 0
-189 11 0
-12 190 191 0
-190 12 0
-191 12 0
-13 192 0
-192 13 0
-14 0
-15 193 194 0
-193 15 0
-194 15 0
-16 195 196 197 0
-195 16 0
-196 16 0
-197 16 0
-17 198 199 0
-198 17 0
-199 17 0
-18 200 0
-200 18 0
-19 201 202 203 0
-201 19 0
-202 19 0
-203 19 0
-20 204 205 0
-204 20 0
-205 20 0
-21 206 207 0
-206 21 0
-207 21 0
-22 208 0
-208 22 0
-23 209 210 0
-209 23 0
-210 23 0
-24 211 212 0
-211 24 0
-212 24 0
-25 213 214 0
-213 25 0
-214 25 0
-26 215 0
-215 26 0
-27 0
-28 216 217 0
-216 28 0
-217 28 0
-29 218 219 220 0
-218 29 0
-219 29 0
-220 29 0
-30 221 222 0
-221 30 0
-222 30 0
-31 223 0
-223 31 0
-32 224 225 226 0
-224 32 0
-225 32 0
-226 32 0
-33 227 228 0
-227 33 0
-228 33 0
-34 229 230 0
-229 34 0
-230 34 0
-35 231 0
-231 35 0
-36 232 233 0
-232 36 0
-233 36 0
-37 234 235 0
-234 37 0
-235 37 0
-38 236 237 0
-236 38 0
-237 38 0
-39 238 0
-238 39 0
-40 0
-41 239 240 0
-239 41 0
-240 41 0
-42 241 242 243 0
-241 42 0
-242 42 0
-243 42 0
-43 244 245 0
-244 43 0
-245 43 0
-44 246 0
-246 44 0
-45 247 248 249 0
-247 45 0
-248 45 0
-249 45 0
-46 250 251 0
-250 46 0
-251 46 0
-47 252 253 0
-252 47 0
-253 47 0
-48 254 0
-254 48 0
-49 255 256 0
-255 49 0
-256 49 0
-50 257 258 0
-257 50 0
-258 50 0
-51 259 260 0
-259 51 0
-260 51 0
-52 261 0
-261 52 0
-53 0
-54 262 263 0
-262 54 0
-263 54 0
-55 264 265 266 0
-264 55 0
-265 55 0
-266 55 0
-56 267 268 0
-267 56 0
-268 56 0
-57 269 0
-269 57 0
-58 270 271 272 0
-270 58 0
-271 58 0
-272 58 0
-59 273 274 0
-273 59 0
-274 59 0
-60 275 276 0
-275 60 0
-276 60 0
-61 277 0
-277 61 0
-62 278 279 0
-278 62 0
-279 62 0
-63 280 281 0
-280 63 0
-281 63 0
-64 282 283 0
-282 64 0
-283 64 0
-65 284 0
-284 65 0
-66 0
-67 285 286 0
-285 67 0
-286 67 0
-68 287 288 289 0
-287 68 0
-288 68 0
-289 68 0
-69 290 291 0
-290 69 0
-291 69 0
-70 292 0
-292 70 0
-71 293 294 295 0
-293 71 0
-294 71 0
-295 71 0
-72 296 297 0
-296 72 0
-297 72 0
-73 298 299 0
-298 73 0
-299 73 0
-74 300 0
-300 74 0
-75 301 302 0
-301 75 0
-302 75 0
-76 303 304 0
-303 76 0
-304 76 0
-77 305 306 0
-305 77 0
-306 77 0
-78 307 0
-307 78 0
-79 0
-80 308 309 0
-308 80 0
-309 80 0
-81 310 311 312 0
-310 81 0
-311 81 0
-312 81 0
-82 313 314 0
-313 82 0
-314 82 0
-83 315 0
-315 83 0
-84 316 317 318 0
-316 84 0
-317 84 0
-318 84 0
-85 319 320 0
-319 85 0
-320 85 0
-86 321 322 0
-321 86 0
-322 86 0
-87 323 0
-323 87 0
-88 324 325 0
-324 88 0
-325 88 0
-89 326 327 0
-326 89 0
-327 89 0
-90 328 329 0
-328 90 0
-329 90 0
-91 330 0
-330 91 0
-92 0
-93 331 332 0
-331 93 0
-332 93 0
-94 333 334 335 0
-333 94 0
-334 94 0
-335 94 0
-95 336 337 0
-336 95 0
-337 95 0
-96 338 0
-338 96 0
-97 339 340 341 0
-339 97 0
-340 97 0
-341 97 0
-98 342 343 0
-342 98 0
-343 98 0
-99 344 345 0
-344 99 0
-345 99 0
-100 346 0
-346 100 0
-101 347 348 0
-347 101 0
-348 101 0
-102 349 350 0
-349 102 0
-350 102 0
-103 351 352 0
-351 103 0
-352 103 0
-104 353 0
-353 104 0
-105 0
-106 354 355 0
-354 106 0
-355 106 0
-107 356 357 358 0
-356 107 0
-357 107 0
-358 107 0
-108 359 360 0
-359 108 0
-360 108 0
-109 361 0
-361 109 0
-110 362 363 364 0
-362 110 0
-363 110 0
-364 110 0
-111 365 366 0
-365 111 0
-366 111 0
-112 367 368 0
-367 112 0
-368 112 0
-113 369 0
-369 113 0
-114 370 371 0
-370 114 0
-371 114 0
-115 372 373 0
-372 115 0
-373 115 0
-116 374 375 0
-374 116 0
-375 116 0
-117 376 0
-376 117 0
-118 0
-119 377 378 0
-377 119 0
-378 119 0
-120 379 380 381 0
-379 120 0
-380 120 0
-381 120 0
-121 382 383 0
-382 121 0
-383 121 0
-122 384 0
-384 122 0
-123 385 386 387 0
-385 123 0
-386 123 0
-387 123 0
-124 388 389 0
-388 124 0
-389 124 0
-125 390 391 0
-390 125 0
-391 125 0
-126 392 0
-392 126 0
-127 393 394 0
-393 127 0
-394 127 0
-128 395 396 0
-395 128 0
-396 128 0
-129 397 398 0
-397 129 0
-398 129 0
-130 399 0
-399 130 0
-131 0
-132 400 401 0
-400 132 0
-401 132 0
-133 402 403 404 0
-402 133 0
-403 133 0
-404 133 0
-134 405 406 0
-405 134 0
-406 134 0
-135 407 0
-407 135 0
-136 408 409 410 0
-408 136 0
-409 136 0
-410 136 0
-137 411 412 0
-411 137 0
-412 137 0
-138 413 414 0
-413 138 0
-414 138 0
-139 415 0
-415 139 0
-140 416 417 0
-416 140 0
-417 140 0
-141 418 419 0
-418 141 0
-419 141 0
-142 420 421 0
-420 142 0
-421 142 0
-143 422 0
-422 143 0
-144 0
-145 423 424 0
-423 145 0
-424 145 0
-146 425 426 427 0
-425 146 0
-426 146 0
-427 146 0
-147 428 429 0
-428 147 0
-429 147 0
-148 430 0
-430 148 0
-149 431 432 433 0
-431 149 0
-432 149 0
-433 149 0
-150 434 435 0
-434 150 0
-435 150 0
-151 436 437 0
-436 151 0
-437 151 0
-152 438 0
-438 152 0
-153 439 440 0
-439 153 0
-440 153 0
-154 441 442 0
-441 154 0
-442 154 0
-155 443 444 0
-443 155 0
-444 155 0
-156 445 0
-445 156 0
-157 0
-158 446 447 0
-446 158 0
-447 158 0
-159 448 449 450 0
-448 159 0
-449 159 0
-450 159 0
-160 451 452 0
-451 160 0
-452 160 0
-161 453 0
-453 161 0
-162 454 455 456 0
-454 162 0
-455 162 0
-456 162 0
-163 457 458 0
-457 163 0
-458 163 0
-164 459 460 0
-459 164 0
-460 164 0
-165 461 0
-461 165 0
-166 462 463 0
-462 166 0
-463 166 0
-167 464 465 0
-464 167 0
-465 167 0
-168 466 467 0
-466 168 0
-467 168 0
-169 468 0
-468 169 0
-170 0
-172 0
-173 0
-174 0
-175 0
-176 0
-176 0
-178 0
-180 0
-180 0
-181 0
-181 0
-182 0
-182 0
-183 0
-183 0
-185 0
-186 0
-187 0
-188 0
-189 0
-190 0
-190 0
-192 0
-193 3 0
-195 2 0
-196 4 0
-197 6 0
-198 3 0
-199 7 0
-199 8 0
-201 3 0
-203 7 0
-203 12 0
-204 4 0
-204 8 0
-205 6 0
-205 12 0
-206 4 0
-206 7 0
-208 10 0
-209 9 0
-210 11 0
-211 10 0
-212 13 0
-213 6 0
-213 7 0
-215 11 0
-216 3 16 0
-218 2 15 0
-219 4 17 0
-220 6 19 0
-221 3 16 0
-222 7 20 0
-222 8 21 0
-224 3 16 0
-226 7 20 0
-226 12 25 0
-227 4 17 0
-227 8 21 0
-228 6 19 0
-228 12 25 0
-229 4 17 0
-229 7 20 0
-231 10 23 0
-232 9 22 0
-233 11 24 0
-234 10 23 0
-235 13 26 0
-236 6 19 0
-236 7 20 0
-238 11 24 0
-239 3 16 29 0
-241 2 15 28 0
-242 4 17 30 0
-243 6 19 32 0
-244 3 16 29 0
-245 7 20 33 0
-245 8 21 34 0
-247 3 16 29 0
-249 7 20 33 0
-249 12 25 38 0
-250 4 17 30 0
-250 8 21 34 0
-251 6 19 32 0
-251 12 25 38 0
-252 4 17 30 0
-252 7 20 33 0
-254 10 23 36 0
-255 9 22 35 0
-256 11 24 37 0
-257 10 23 36 0
-258 13 26 39 0
-259 6 19 32 0
-259 7 20 33 0
-261 11 24 37 0
-262 3 16 29 42 0
-264 2 15 28 41 0
-265 4 17 30 43 0
-266 6 19 32 45 0
-267 3 16 29 42 0
-268 7 20 33 46 0
-268 8 21 34 47 0
-270 3 16 29 42 0
-272 7 20 33 46 0
-272 12 25 38 51 0
-273 4 17 30 43 0
-273 8 21 34 47 0
-274 6 19 32 45 0
-274 12 25 38 51 0
-275 4 17 30 43 0
-275 7 20 33 46 0
-277 10 23 36 49 0
-278 9 22 35 48 0
-279 11 24 37 50 0
-280 10 23 36 49 0
-281 13 26 39 52 0
-282 6 19 32 45 0
-282 7 20 33 46 0
-284 11 24 37 50 0
-285 3 16 29 42 55 0
-287 2 15 28 41 54 0
-288 4 17 30 43 56 0
-289 6 19 32 45 58 0
-290 3 16 29 42 55 0
-291 7 20 33 46 59 0
-291 8 21 34 47 60 0
-293 3 16 29 42 55 0
-295 7 20 33 46 59 0
-295 12 25 38 51 64 0
-296 4 17 30 43 56 0
-296 8 21 34 47 60 0
-297 6 19 32 45 58 0
-297 12 25 38 51 64 0
-298 4 17 30 43 56 0
-298 7 20 33 46 59 0
-300 10 23 36 49 62 0
-301 9 22 35 48 61 0
-302 11 24 37 50 63 0
-303 10 23 36 49 62 0
-304 13 26 39 52 65 0
-305 6 19 32 45 58 0
-305 7 20 33 46 59 0
-307 11 24 37 50 63 0
-308 3 16 29 42 55 68 0
-310 2 15 28 41 54 67 0
-311 4 17 30 43 56 69 0
-312 6 19 32 45 58 71 0
-313 3 16 29 42 55 68 0
-314 7 20 33 46 59 72 0
-314 8 21 34 47 60 73 0
-316 3 16 29 42 55 68 0
-318 7 20 33 46 59 72 0
-318 12 25 38 51 64 77 0
-319 4 17 30 43 56 69 0
-319 8 21 34 47 60 73 0
-320 6 19 32 45 58 71 0
-320 12 25 38 51 64 77 0
-321 4 17 30 43 56 69 0
-321 7 20 33 46 59 72 0
-323 10 23 36 49 62 75 0
-324 9 22 35 48 61 74 0
-325 11 24 37 50 63 76 0
-326 10 23 36 49 62 75 0
-327 13 26 39 52 65 78 0
-328 6 19 32 45 58 71 0
-328 7 20 33 46 59 72 0
-330 11 24 37 50 63 76 0
-331 3 16 29 42 55 68 81 0
-333 2 15 28 41 54 67 80 0
-334 4 17 30 43 56 69 82 0
-335 6 19 32 45 58 71 84 0
-336 3 16 29 42 55 68 81 0
-337 7 20 33 46 59 72 85 0
-337 8 21 34 47 60 73 86 0
-339 3 16 29 42 55 68 81 0
-341 7 20 33 46 59 72 85 0
-341 12 25 38 51 64 77 90 0
-342 4 17 30 43 56 69 82 0
-342 8 21 34 47 60 73 86 0
-343 6 19 32 45 58 71 84 0
-343 12 25 38 51 64 77 90 0
-344 4 17 30 43 56 69 82 0
-344 7 20 33 46 59 72 85 0
-346 10 23 36 49 62 75 88 0
-347 9 22 35 48 61 74 87 0
-348 11 24 37 50 63 76 89 0
-349 10 23 36 49 62 75 88 0
-350 13 26 39 52 65 78 91 0
-351 6 19 32 45 58 71 84 0
-351 7 20 33 46 59 72 85 0
-353 11 24 37 50 63 76 89 0
-354 3 16 29 42 55 68 81 94 0
-356 2 15 28 41 54 67 80 93 0
-357 4 17 30 43 56 69 82 95 0
-358 6 19 32 45 58 71 84 97 0
-359 3 16 29 42 55 68 81 94 0
-360 7 20 33 46 59 72 85 98 0
-360 8 21 34 47 60 73 86 99 0
-362 3 16 29 42 55 68 81 94 0
-364 7 20 33 46 59 72 85 98 0
-364 12 25 38 51 64 77 90 103 0
-365 4 17 30 43 56 69 82 95 0
-365 8 21 34 47 60 73 86 99 0
-366 6 19 32 45 58 71 84 97 0
-366 12 25 38 51 64 77 90 103 0
-367 4 17 30 43 56 69 82 95 0
-367 7 20 33 46 59 72 85 98 0
-369 10 23 36 49 62 75 88 101 0
-370 9 22 35 48 61 74 87 100 0
-371 11 24 37 50 63 76 89 102 0
-372 10 23 36 49 62 75 88 101 0
-373 13 26 39 52 65 78 91 104 0
-374 6 19 32 45 58 71 84 97 0
-374 7 20 33 46 59 72 85 98 0
-376 11 24 37 50 63 76 89 102 0
-377 3 16 29 42 55 68 81 94 107 0
-379 2 15 28 41 54 67 80 93 106 0
-380 4 17 30 43 56 69 82 95 108 0
-381 6 19 32 45 58 71 84 97 110 0
-382 3 16 29 42 55 68 81 94 107 0
-383 7 20 33 46 59 72 85 98 111 0
-383 8 21 34 47 60 73 86 99 112 0
-385 3 16 29 42 55 68 81 94 107 0
-387 7 20 33 46 59 72 85 98 111 0
-387 12 25 38 51 64 77 90 103 116 0
-388 4 17 30 43 56 69 82 95 108 0
-388 8 21 34 47 60 73 86 99 112 0
-389 6 19 32 45 58 71 84 97 110 0
-389 12 25 38 51 64 77 90 103 116 0
-390 4 17 30 43 56 69 82 95 108 0
-390 7 20 33 46 59 72 85 98 111 0
-392 10 23 36 49 62 75 88 101 114 0
-393 9 22 35 48 61 74 87 100 113 0
-394 11 24 37 50 63 76 89 102 115 0
-395 10 23 36 49 62 75 88 101 114 0
-396 13 26 39 52 65 78 91 104 117 0
-397 6 19 32 45 58 71 84 97 110 0
-397 7 20 33 46 59 72 85 98 111 0
-399 11 24 37 50 63 76 89 102 115 0
-400 3 16 29 42 55 68 81 94 107 120 0
-402 2 15 28 41 54 67 80 93 106 119 0
-403 4 17 30 43 56 69 82 95 108 121 0
-404 6 19 32 45 58 71 84 97 110 123 0
-405 3 16 29 42 55 68 81 94 107 120 0
-406 7 20 33 46 59 72 85 98 111 124 0
-406 8 21 34 47 60 73 86 99 112 125 0
-408 3 16 29 42 55 68 81 94 107 120 0
-410 7 20 33 46 59 72 85 98 111 124 0
-410 12 25 38 51 64 77 90 103 116 129 0
-411 4 17 30 43 56 69 82 95 108 121 0
-411 8 21 34 47 60 73 86 99 112 125 0
-412 6 19 32 45 58 71 84 97 110 123 0
-412 12 25 38 51 64 77 90 103 116 129 0
-413 4 17 30 43 56 69 82 95 108 121 0
-413 7 20 33 46 59 72 85 98 111 124 0
-415 10 23 36 49 62 75 88 101 114 127 0
-416 9 22 35 48 61 74 87 100 113 126 0
-417 11 24 37 50 63 76 89 102 115 128 0
-418 10 23 36 49 62 75 88 101 114 127 0
-419 13 26 39 52 65 78 91 104 117 130 0
-420 6 19 32 45 58 71 84 97 110 123 0
-420 7 20 33 46 59 72 85 98 111 124 0
-422 11 24 37 50 63 76 89 102 115 128 0
-423 3 16 29 42 55 68 81 94 107 120 133 0
-425 2 15 28 41 54 67 80 93 106 119 132 0
-426 4 17 30 43 56 69 82 95 108 121 134 0
-427 6 19 32 45 58 71 84 97 110 123 136 0
-428 3 16 29 42 55 68 81 94 107 120 133 0
-429 7 20 33 46 59 72 85 98 111 124 137 0
-429 8 21 34 47 60 73 86 99 112 125 138 0
-431 3 16 29 42 55 68 81 94 107 120 133 0
-433 7 20 33 46 59 72 85 98 111 124 137 0
-433 12 25 38 51 64 77 90 103 116 129 142 0
-434 4 17 30 43 56 69 82 95 108 121 134 0
-434 8 21 34 47 60 73 86 99 112 125 138 0
-435 6 19 32 45 58 71 84 97 110 123 136 0
-435 12 25 38 51 64 77 90 103 116 129 142 0
-436 4 17 30 43 56 69 82 95 108 121 134 0
-436 7 20 33 46 59 72 85 98 111 124 137 0
-438 10 23 36 49 62 75 88 101 114 127 140 0
-439 9 22 35 48 61 74 87 100 113 126 139 0
-440 11 24 37 50 63 76 89 102 115 128 141 0
-441 10 23 36 49 62 75 88 101 114 127 140 0
-442 13 26 39 52 65 78 91 104 117 130 143 0
-443 6 19 32 45 58 71 84 97 110 123 136 0
-443 7 20 33 46 59 72 85 98 111 124 137 0
-445 11 24 37 50 63 76 89 102 115 128 141 0
-446 3 16 29 42 55 68 81 94 107 120 133 146 0
-448 2 15 28 41 54 67 80 93 106 119 132 145 0
-449 4 17 30 43 56 69 82 95 108 121 134 147 0
-450 6 19 32 45 58 71 84 97 110 123 136 149 0
-451 3 16 29 42 55 68 81 94 107 120 133 146 0
-452 7 20 33 46 59 72 85 98 111 124 137 150 0
-452 8 21 34 47 60 73 86 99 112 125 138 151 0
-454 3 16 29 42 55 68 81 94 107 120 133 146 0
-456 7 20 33 46 59 72 85 98 111 124 137 150 0
-456 12 25 38 51 64 77 90 103 116 129 142 155 0
-457 4 17 30 43 56 69 82 95 108 121 134 147 0
-457 8 21 34 47 60 73 86 99 112 125 138 151 0
-458 6 19 32 45 58 71 84 97 110 123 136 149 0
-458 12 25 38 51 64 77 90 103 116 129 142 155 0
-459 4 17 30 43 56 69 82 95 108 121 134 147 0
-459 7 20 33 46 59 72 85 98 111 124 137 150 0
-461 10 23 36 49 62 75 88 101 114 127 140 153 0
-462 9 22 35 48 61 74 87 100 113 126 139 152 0
-463 11 24 37 50 63 76 89 102 115 128 141 154 0
-464 10 23 36 49 62 75 88 101 114 127 140 153 0
-465 13 26 39 52 65 78 91 104 117 130 143 156 0
-466 6 19 32 45 58 71 84 97 110 123 136 149 0
-466 7 20 33 46 59 72 85 98 111 124 137 150 0
-468 11 24 37 50 63 76 89 102 115 128 141 154 0
