p cnf 308 1100
-1 -2 0
-1 -3 0
-1 -4 0
-1 -5 0
-1 -6 0
-1 -7 0
-1 -8 0
-1 -9 0
-1 -10 0
-1 -11 0
-2 -3 0
-2 -4 0
-2 -5 0
-2 -6 0
-2 -7 0
-2 -8 0
-2 -9 0
-2 -10 0
-2 -11 0
-3 -4 0
-3 -5 0
-3 -6 0
-3 -7 0
-3 -8 0
-3 -9 0
-3 -10 0
-3 -11 0
-4 -5 0
-4 -6 0
-4 -7 0
-4 -8 0
-4 -9 0
-4 -10 0
-4 -11 0
-5 -6 0
-5 -7 0
-5 -8 0
-5 -9 0
-5 -10 0
-5 -11 0
-6 -7 0
-6 -8 0
-6 -9 0
-6 -10 0
-6 -11 0
-7 -8 0
-7 -9 0
-7 -10 0
-7 -11 0
-8 -9 0
-8 -10 0
-8 -11 0
-9 -10 0
-9 -11 0
-10 -11 0
-12 -13 0
-12 -14 0
-12 -15 0
-12 -16 0
-12 -17 0
-12 -18 0
-12 -19 0
-12 -20 0
-12 -21 0
-12 -22 0
-13 -14 0
-13 -15 0
-13 -16 0
-13 -17 0
-13 -18 0
-13 -19 0
-13 -20 0
-13 -21 0
-13 -22 0
-14 -15 0
-14 -16 0
-14 -17 0
-14 -18 0
-14 -19 0
-14 -20 0
-14 -21 0
-14 -22 0
-15 -16 0
-15 -17 0
-15 -18 0
-15 -19 0
-15 -20 0
-15 -21 0
-15 -22 0
-16 -17 0
-16 -18 0
-16 -19 0
-16 -20 0
-16 -21 0
-16 -22 0
-17 -18 0
-17 -19 0
-17 -20 0
-17 -21 0
-17 -22 0
-18 -19 0
-18 -20 0
-18 -21 0
-18 -22 0
-19 -20 0
-19 -21 0
-19 -22 0
-20 -21 0
-20 -22 0
-21 -22 0
-23 -24 0
-23 -25 0
-23 -26 0
-23 -27 0
-23 -28 0
-23 -29 0
-23 -30 0
-23 -31 0
-23 -32 0
-23 -33 0
-24 -25 0
-24 -26 0
-24 -27 0
-24 -28 0
-24 -29 0
-24 -30 0
-24 -31 0
-24 -32 0
-24 -33 0
-25 -26 0
-25 -27 0
-25 -28 0
-25 -29 0
-25 -30 0
-25 -31 0
-25 -32 0
-25 -33 0
-26 -27 0
-26 -28 0
-26 -29 0
-26 -30 0
-26 -31 0
-26 -32 0
-26 -33 0
-27 -28 0
-27 -29 0
-27 -30 0
-27 -31 0
-27 -32 0
-27 -33 0
-28 -29 0
-28 -30 0
-28 -31 0
-28 -32 0
-28 -33 0
-29 -30 0
-29 -31 0
-29 -32 0
-29 -33 0
-30 -31 0
-30 -32 0
-30 -33 0
-31 -32 0
-31 -33 0
-32 -33 0
-34 -35 0
-34 -36 0
-34 -37 0
-34 -38 0
-34 -39 0
-34 -40 0
-34 -41 0
-34 -42 0
-34 -43 0
-34 -44 0
-35 -36 0
-35 -37 0
-35 -38 0
-35 -39 0
-35 -40 0
-35 -41 0
-35 -42 0
-35 -43 0
-35 -44 0
-36 -37 0
-36 -38 0
-36 -39 0
-36 -40 0
-36 -41 0
-36 -42 0
-36 -43 0
-36 -44 0
-37 -38 0
-37 -39 0
-37 -40 0
-37 -41 0
-37 -42 0
-37 -43 0
-37 -44 0
-38 -39 0
-38 -40 0
-38 -41 0
-38 -42 0
-38 -43 0
-38 -44 0
-39 -40 0
-39 -41 0
-39 -42 0
-39 -43 0
-39 -44 0
-40 -41 0
-40 -42 0
-40 -43 0
-40 -44 0
-41 -42 0
-41 -43 0
-41 -44 0
-42 -43 0
-42 -44 0
-43 -44 0
-45 -46 0
-45 -47 0
-45 -48 0
-45 -49 0
-45 -50 0
-45 -51 0
-45 -52 0
-45 -53 0
-45 -54 0
-45 -55 0
-46 -47 0
-46 -48 0
-46 -49 0
-46 -50 0
-46 -51 0
-46 -52 0
-46 -53 0
-46 -54 0
-46 -55 0
-47 -48 0
-47 -49 0
-47 -50 0
-47 -51 0
-47 -52 0
-47 -53 0
-47 -54 0
-47 -55 0
-48 -49 0
-48 -50 0
-48 -51 0
-48 -52 0
-48 -53 0
-48 -54 0
-48 -55 0
-49 -50 0
-49 -51 0
-49 -52 0
-49 -53 0
-49 -54 0
-49 -55 0
-50 -51 0
-50 -52 0
-50 -53 0
-50 -54 0
-50 -55 0
-51 -52 0
-51 -53 0
-51 -54 0
-51 -55 0
-52 -53 0
-52 -54 0
-52 -55 0
-53 -54 0
-53 -55 0
-54 -55 0
-56 -57 0
-56 -58 0
-56 -59 0
-56 -60 0
-56 -61 0
-56 -62 0
-56 -63 0
-56 -64 0
-56 -65 0
-56 -66 0
-57 -58 0
-57 -59 0
-57 -60 0
-57 -61 0
-57 -62 0
-57 -63 0
-57 -64 0
-57 -65 0
-57 -66 0
-58 -59 0
-58 -60 0
-58 -61 0
-58 -62 0
-58 -63 0
-58 -64 0
-58 -65 0
-58 -66 0
-59 -60 0
-59 -61 0
-59 -62 0
-59 -63 0
-59 -64 0
-59 -65 0
-59 -66 0
-60 -61 0
-60 -62 0
-60 -63 0
-60 -64 0
-60 -65 0
-60 -66 0
-61 -62 0
-61 -63 0
-61 -64 0
-61 -65 0
-61 -66 0
-62 -63 0
-62 -64 0
-62 -65 0
-62 -66 0
-63 -64 0
-63 -65 0
-63 -66 0
-64 -65 0
-64 -66 0
-65 -66 0
-67 -68 0
-67 -69 0
-67 -70 0
-67 -71 0
-67 -72 0
-67 -73 0
-67 -74 0
-67 -75 0
-67 -76 0
-67 -77 0
-68 -69 0
-68 -70 0
-68 -71 0
-68 -72 0
-68 -73 0
-68 -74 0
-68 -75 0
-68 -76 0
-68 -77 0
-69 -70 0
-69 -71 0
-69 -72 0
-69 -73 0
-69 -74 0
-69 -75 0
-69 -76 0
-69 -77 0
-70 -71 0
-70 -72 0
-70 -73 0
-70 -74 0
-70 -75 0
-70 -76 0
-70 -77 0
-71 -72 0
-71 -73 0
-71 -74 0
-71 -75 0
-71 -76 0
-71 -77 0
-72 -73 0
-72 -74 0
-72 -75 0
-72 -76 0
-72 -77 0
-73 -74 0
-73 -75 0
-73 -76 0
-73 -77 0
-74 -75 0
-74 -76 0
-74 -77 0
-75 -76 0
-75 -77 0
-76 -77 0
-78 -79 0
-78 -80 0
-78 -81 0
-78 -82 0
-78 -83 0
-78 -84 0
-78 -85 0
-78 -86 0
-78 -87 0
-78 -88 0
-79 -80 0
-79 -81 0
-79 -82 0
-79 -83 0
-79 -84 0
-79 -85 0
-79 -86 0
-79 -87 0
-79 -88 0
-80 -81 0
-80 -82 0
-80 -83 0
-80 -84 0
-80 -85 0
-80 -86 0
-80 -87 0
-80 -88 0
-81 -82 0
-81 -83 0
-81 -84 0
-81 -85 0
-81 -86 0
-81 -87 0
-81 -88 0
-82 -83 0
-82 -84 0
-82 -85 0
-82 -86 0
-82 -87 0
-82 -88 0
-83 -84 0
-83 -85 0
-83 -86 0
-83 -87 0
-83 -88 0
-84 -85 0
-84 -86 0
-84 -87 0
-84 -88 0
-85 -86 0
-85 -87 0
-85 -88 0
-86 -87 0
-86 -88 0
-87 -88 0
-89 -90 0
-89 -91 0
-89 -92 0
-89 -93 0
-89 -94 0
-89 -95 0
-89 -96 0
-89 -97 0
-89 -98 0
-89 -99 0
-90 -91 0
-90 -92 0
-90 -93 0
-90 -94 0
-90 -95 0
-90 -96 0
-90 -97 0
-90 -98 0
-90 -99 0
-91 -92 0
-91 -93 0
-91 -94 0
-91 -95 0
-91 -96 0
-91 -97 0
-91 -98 0
-91 -99 0
-92 -93 0
-92 -94 0
-92 -95 0
-92 -96 0
-92 -97 0
-92 -98 0
-92 -99 0
-93 -94 0
-93 -95 0
-93 -96 0
-93 -97 0
-93 -98 0
-93 -99 0
-94 -95 0
-94 -96 0
-94 -97 0
-94 -98 0
-94 -99 0
-95 -96 0
-95 -97 0
-95 -98 0
-95 -99 0
-96 -97 0
-96 -98 0
-96 -99 0
-97 -98 0
-97 -99 0
-98 -99 0
-100 -101 0
-100 -102 0
-100 -103 0
-100 -104 0
-100 -105 0
-100 -106 0
-100 -107 0
-100 -108 0
-100 -109 0
-100 -110 0
-101 -102 0
-101 -103 0
-101 -104 0
-101 -105 0
-101 -106 0
-101 -107 0
-101 -108 0
-101 -109 0
-101 -110 0
-102 -103 0
-102 -104 0
-102 -105 0
-102 -106 0
-102 -107 0
-102 -108 0
-102 -109 0
-102 -110 0
-103 -104 0
-103 -105 0
-103 -106 0
-103 -107 0
-103 -108 0
-103 -109 0
-103 -110 0
-104 -105 0
-104 -106 0
-104 -107 0
-104 -108 0
-104 -109 0
-104 -110 0
-105 -106 0
-105 -107 0
-105 -108 0
-105 -109 0
-105 -110 0
-106 -107 0
-106 -108 0
-106 -109 0
-106 -110 0
-107 -108 0
-107 -109 0
-107 -110 0
-108 -109 0
-108 -110 0
-109 -110 0
-111 -112 0
-111 -113 0
-111 -114 0
-111 -115 0
-111 -116 0
-111 -117 0
-111 -118 0
-111 -119 0
-111 -120 0
-111 -121 0
-112 -113 0
-112 -114 0
-112 -115 0
-112 -116 0
-112 -117 0
-112 -118 0
-112 -119 0
-112 -120 0
-112 -121 0
-113 -114 0
-113 -115 0
-113 -116 0
-113 -117 0
-113 -118 0
-113 -119 0
-113 -120 0
-113 -121 0
-114 -115 0
-114 -116 0
-114 -117 0
-114 -118 0
-114 -119 0
-114 -120 0
-114 -121 0
-115 -116 0
-115 -117 0
-115 -118 0
-115 -119 0
-115 -120 0
-115 -121 0
-116 -117 0
-116 -118 0
-116 -119 0
-116 -120 0
-116 -121 0
-117 -118 0
-117 -119 0
-117 -120 0
-117 -121 0
-118 -119 0
-118 -120 0
-118 -121 0
-119 -120 0
-119 -121 0
-120 -121 0
1 12 23 34 45 56 67 78 89 100 111 0
2 13 24 35 46 57 68 79 90 101 112 0
3 14 25 36 47 58 69 80 91 102 113 0
4 15 26 37 48 59 70 81 92 103 114 0
5 16 27 38 49 60 71 82 93 104 115 0
6 17 28 39 50 61 72 83 94 105 116 0
7 18 29 40 51 62 73 84 95 106 117 0
8 19 30 41 52 63 74 85 96 107 118 0
9 20 31 42 53 64 75 86 97 108 119 0
10 21 32 43 54 65 76 87 98 109 120 0
11 22 33 44 55 66 77 88 99 110 121 0
-1 122 0
-122 1 0
-2 123 124 0
-123 2 0
-124 2 0
-3 125 126 0
-125 3 0
-126 3 0
-4 127 0
-127 4 0
-5 128 0
-128 5 0
-6 129 130 0
-129 6 0
-130 6 0
-7 131 132 133 0
-131 7 0
-132 7 0
-133 7 0
-8 134 0
-134 8 0
-9 135 136 0
-135 9 0
-136 9 0
-10 137 138 0
-137 10 0
-138 10 0
-11 0
-12 139 0
-139 12 0
-13 140 141 0
-140 13 0
-141 13 0
-14 142 143 0
-142 14 0
-143 14 0
-15 144 0
-144 15 0
-16 145 0
-145 16 0
-17 146 147 0
-146 17 0
-147 17 0
-18 148 149 150 0
-148 18 0
-149 18 0
-150 18 0
-19 151 0
-151 19 0
-20 152 153 0
-152 20 0
-153 20 0
-21 154 155 0
-154 21 0
-155 21 0
-22 0
-23 156 0
-156 23 0
-24 157 158 0
-157 24 0
-158 24 0
-25 159 160 0
-159 25 0
-160 25 0
-26 161 0
-161 26 0
-27 162 0
-162 27 0
-28 163 164 0
-163 28 0
-164 28 0
-29 165 166 167 0
-165 29 0
-166 29 0
-167 29 0
-30 168 0
-168 30 0
-31 169 170 0
-169 31 0
-170 31 0
-32 171 172 0
-171 32 0
-172 32 0
-33 0
-34 173 0
-173 34 0
-35 174 175 0
-174 35 0
-175 35 0
-36 176 177 0
-176 36 0
-177 36 0
-37 178 0
-178 37 0
-38 179 0
-179 38 0
-39 180 181 0
-180 39 0
-181 39 0
-40 182 183 184 0
-182 40 0
-183 40 0
-184 40 0
-41 185 0
-185 41 0
-42 186 187 0
-186 42 0
-187 42 0
-43 188 189 0
-188 43 0
-189 43 0
-44 0
-45 190 0
-190 45 0
-46 191 192 0
-191 46 0
-192 46 0
-47 193 194 0
-193 47 0
-194 47 0
-48 195 0
-195 48 0
-49 196 0
-196 49 0
-50 197 198 0
-197 50 0
-198 50 0
-51 199 200 201 0
-199 51 0
-200 51 0
-201 51 0
-52 202 0
-202 52 0
-53 203 204 0
-203 53 0
-204 53 0
-54 205 206 0
-205 54 0
-206 54 0
-55 0
-56 207 0
-207 56 0
-57 208 209 0
-208 57 0
-209 57 0
-58 210 211 0
-210 58 0
-211 58 0
-59 212 0
-212 59 0
-60 213 0
-213 60 0
-61 214 215 0
-214 61 0
-215 61 0
-62 216 217 218 0
-216 62 0
-217 62 0
-218 62 0
-63 219 0
-219 63 0
-64 220 221 0
-220 64 0
-221 64 0
-65 222 223 0
-222 65 0
-223 65 0
-66 0
-67 224 0
-224 67 0
-68 225 226 0
-225 68 0
-226 68 0
-69 227 228 0
-227 69 0
-228 69 0
-70 229 0
-229 70 0
-71 230 0
-230 71 0
-72 231 232 0
-231 72 0
-232 72 0
-73 233 234 235 0
-233 73 0
-234 73 0
-235 73 0
-74 236 0
-236 74 0
-75 237 238 0
-237 75 0
-238 75 0
-76 239 240 0
-239 76 0
-240 76 0
-77 0
-78 241 0
-241 78 0
-79 242 243 0
-242 79 0
-243 79 0
-80 244 245 0
-244 80 0
-245 80 0
-81 246 0
-246 81 0
-82 247 0
-247 82 0
-83 248 249 0
-248 83 0
-249 83 0
-84 250 251 252 0
-250 84 0
-251 84 0
-252 84 0
-85 253 0
-253 85 0
-86 254 255 0
-254 86 0
-255 86 0
-87 256 257 0
-256 87 0
-257 87 0
-88 0
-89 258 0
-258 89 0
-90 259 260 0
-259 90 0
-260 90 0
-91 261 262 0
-261 91 0
-262 91 0
-92 263 0
-263 92 0
-93 264 0
-264 93 0
-94 265 266 0
-265 94 0
-266 94 0
-95 267 268 269 0
-267 95 0
-268 95 0
-269 95 0
-96 270 0
-270 96 0
-97 271 272 0
-271 97 0
-272 97 0
-98 273 274 0
-273 98 0
-274 98 0
-99 0
-100 275 0
-275 100 0
-101 276 277 0
-276 101 0
-277 101 0
-102 278 279 0
-278 102 0
-279 102 0
-103 280 0
-280 103 0
-104 281 0
-281 104 0
-105 282 283 0
-282 105 0
-283 105 0
-106 284 285 286 0
-284 106 0
-285 106 0
-286 106 0
-107 287 0
-287 107 0
-108 288 289 0
-288 108 0
-289 108 0
-109 290 291 0
-290 109 0
-291 109 0
-110 0
-111 292 0
-292 111 0
-112 293 294 0
-293 112 0
-294 112 0
-113 295 296 0
-295 113 0
-296 113 0
-114 297 0
-297 114 0
-115 298 0
-298 115 0
-116 299 300 0
-299 116 0
-300 116 0
-117 301 302 303 0
-301 117 0
-302 117 0
-303 117 0
-118 304 0
-304 118 0
-119 305 306 0
-305 119 0
-306 119 0
-120 307 308 0
-307 120 0
-308 120 0
-121 0
-122 0
-123 0
-124 0
-125 0
-126 0
-127 0
-128 0
-129 0
-130 0
-131 0
-132 0
-133 0
-134 0
-135 0
-136 0
-137 0
-139 7 0
-140 10 0
-141 9 0
-142 4 0
-143 5 0
-144 3 0
-145 3 0
-146 7 0
-147 9 0
-148 1 0
-149 6 0
-150 8 0
-151 7 0
-152 2 0
-153 6 0
-154 2 0
-156 7 18 0
-157 10 21 0
-158 9 20 0
-159 4 15 0
-160 5 16 0
-161 3 14 0
-162 3 14 0
-163 7 18 0
-164 9 20 0
-165 1 12 0
-166 6 17 0
-167 8 19 0
-168 7 18 0
-169 2 13 0
-170 6 17 0
-171 2 13 0
-173 7 18 29 0
-174 10 21 32 0
-175 9 20 31 0
-176 4 15 26 0
-177 5 16 27 0
-178 3 14 25 0
-179 3 14 25 0
-180 7 18 29 0
-181 9 20 31 0
-182 1 12 23 0
-183 6 17 28 0
-184 8 19 30 0
-185 7 18 29 0
-186 2 13 24 0
-187 6 17 28 0
-188 2 13 24 0
-190 7 18 29 40 0
-191 10 21 32 43 0
-192 9 20 31 42 0
-193 4 15 26 37 0
-194 5 16 27 38 0
-195 3 14 25 36 0
-196 3 14 25 36 0
-197 7 18 29 40 0
-198 9 20 31 42 0
-199 1 12 23 34 0
-200 6 17 28 39 0
-201 8 19 30 41 0
-202 7 18 29 40 0
-203 2 13 24 35 0
-204 6 17 28 39 0
-205 2 13 24 35 0
-207 7 18 29 40 51 0
-208 10 21 32 43 54 0
-209 9 20 31 42 53 0
-210 4 15 26 37 48 0
-211 5 16 27 38 49 0
-212 3 14 25 36 47 0
-213 3 14 25 36 47 0
-214 7 18 29 40 51 0
-215 9 20 31 42 53 0
-216 1 12 23 34 45 0
-217 6 17 28 39 50 0
-218 8 19 30 41 52 0
-219 7 18 29 40 51 0
-220 2 13 24 35 46 0
-221 6 17 28 39 50 0
-222 2 13 24 35 46 0
-224 7 18 29 40 51 62 0
-225 10 21 32 43 54 65 0
-226 9 20 31 42 53 64 0
-227 4 15 26 37 48 59 0
-228 5 16 27 38 49 60 0
-229 3 14 25 36 47 58 0
-230 3 14 25 36 47 58 0
-231 7 18 29 40 51 62 0
-232 9 20 31 42 53 64 0
-233 1 12 23 34 45 56 0
-234 6 17 28 39 50 61 0
-235 8 19 30 41 52 63 0
-236 7 18 29 40 51 62 0
-237 2 13 24 35 46 57 0
-238 6 17 28 39 50 61 0
-239 2 13 24 35 46 57 0
-241 7 18 29 40 51 62 73 0
-242 10 21 32 43 54 65 76 0
-243 9 20 31 42 53 64 75 0
-244 4 15 26 37 48 59 70 0
-245 5 16 27 38 49 60 71 0
-246 3 14 25 36 47 58 69 0
-247 3 14 25 36 47 58 69 0
-248 7 18 29 40 51 62 73 0
-249 9 20 31 42 53 64 75 0
-250 1 12 23 34 45 56 67 0
-251 6 17 28 39 50 61 72 0
-252 8 19 30 41 52 63 74 0
-253 7 18 29 40 51 62 73 0
-254 2 13 24 35 46 57 68 0
-255 6 17 28 39 50 61 72 0
-256 2 13 24 35 46 57 68 0
-258 7 18 29 40 51 62 73 84 0
-259 10 21 32 43 54 65 76 87 0
-260 9 20 31 42 53 64 75 86 0
-261 4 15 26 37 48 59 70 81 0
-262 5 16 27 38 49 60 71 82 0
-263 3 14 25 36 47 58 69 80 0
-264 3 14 25 36 47 58 69 80 0
-265 7 18 29 40 51 62 73 84 0
-266 9 20 31 42 53 64 75 86 0
-267 1 12 23 34 45 56 67 78 0
-268 6 17 28 39 50 61 72 83 0
-269 8 19 30 41 52 63 74 85 0
-270 7 18 29 40 51 62 73 84 0
-271 2 13 24 35 46 57 68 79 0
-272 6 17 28 39 50 61 72 83 0
-273 2 13 24 35 46 57 68 79 0
-275 7 18 29 40 51 62 73 84 95 0
-276 10 21 32 43 54 65 76 87 98 0
-277 9 20 31 42 53 64 75 86 97 0
-278 4 15 26 37 48 59 70 81 92 0
-279 5 16 27 38 49 60 71 82 93 0
-280 3 14 25 36 47 58 69 80 91 0
-281 3 14 25 36 47 58 69 80 91 0
-282 7 18 29 40 51 62 73 84 95 0
-283 9 20 31 42 53 64 75 86 97 0
-284 1 12 23 34 45 56 67 78 89 0
-285 6 17 28 39 50 61 72 83 94 0
-286 8 19 30 41 52 63 74 85 96 0
-287 7 18 29 40 51 62 73 84 95 0
-288 2 13 24 35 46 57 68 79 90 0
-289 6 17 28 39 50 61 72 83 94 0
-290 2 13 24 35 46 57 68 79 90 0
-292 7 18 29 40 51 62 73 84 95 106 0
-293 10 21 32 43 54 65 76 87 98 109 0
-294 9 20 31 42 53 64 75 86 97 108 0
-295 4 15 26 37 48 59 70 81 92 103 0
-296 5 16 27 38 49 60 71 82 93 104 0
-297 3 14 25 36 47 58 69 80 91 102 0
-298 3 14 25 36 47 58 69 80 91 102 0
-299 7 18 29 40 51 62 73 84 95 106 0
-300 9 20 31 42 53 64 75 86 97 108 0
-301 1 12 23 34 45 56 67 78 89 100 0
-302 6 17 28 39 50 61 72 83 94 105 0
-303 8 19 30 41 52 63 74 85 96 107 0
-304 7 18 29 40 51 62 73 84 95 106 0
-305 2 13 24 35 46 57 68 79 90 101 0
-306 6 17 28 39 50 61 72 83 94 105 0
-307 2 13 24 35 46 57 68 79 90 101 0
