p cnf 308 1100
-1 -2 0
-1 -3 0
-1 -4 0
-1 -5 0
-1 -6 0
-1 -7 0
-1 -8 0
-1 -9 0
-1 -10 0
-1 -11 0
-2 -3 0
-2 -4 0
-2 -5 0
-2 -6 0
-2 -7 0
-2 -8 0
-2 -9 0
-2 -10 0
-2 -11 0
-3 -4 0
-3 -5 0
-3 -6 0
-3 -7 0
-3 -8 0
-3 -9 0
-3 -10 0
-3 -11 0
-4 -5 0
-4 -6 0
-4 -7 0
-4 -8 0
-4 -9 0
-4 -10 0
-4 -11 0
-5 -6 0
-5 -7 0
-5 -8 0
-5 -9 0
-5 -10 0
-5 -11 0
-6 -7 0
-6 -8 0
-6 -9 0
-6 -10 0
-6 -11 0
-7 -8 0
-7 -9 0
-7 -10 0
-7 -11 0
-8 -9 0
-8 -10 0
-8 -11 0
-9 -10 0
-9 -11 0
-10 -11 0
-12 -13 0
-12 -14 0
-12 -15 0
-12 -16 0
-12 -17 0
-12 -18 0
-12 -19 0
-12 -20 0
-12 -21 0
-12 -22 0
-13 -14 0
-13 -15 0
-13 -16 0
-13 -17 0
-13 -18 0
-13 -19 0
-13 -20 0
-13 -21 0
-13 -22 0
-14 -15 0
-14 -16 0
-14 -17 0
-14 -18 0
-14 -19 0
-14 -20 0
-14 -21 0
-14 -22 0
-15 -16 0
-15 -17 0
-15 -18 0
-15 -19 0
-15 -20 0
-15 -21 0
-15 -22 0
-16 -17 0
-16 -18 0
-16 -19 0
-16 -20 0
-16 -21 0
-16 -22 0
-17 -18 0
-17 -19 0
-17 -20 0
-17 -21 0
-17 -22 0
-18 -19 0
-18 -20 0
-18 -21 0
-18 -22 0
-19 -20 0
-19 -21 0
-19 -22 0
-20 -21 0
-20 -22 0
-21 -22 0
-23 -24 0
-23 -25 0
-23 -26 0
-23 -27 0
-23 -28 0
-23 -29 0
-23 -30 0
-23 -31 0
-23 -32 0
-23 -33 0
-24 -25 0
-24 -26 0
-24 -27 0
-24 -28 0
-24 -29 0
-24 -30 0
-24 -31 0
-24 -32 0
-24 -33 0
-25 -26 0
-25 -27 0
-25 -28 0
-25 -29 0
-25 -30 0
-25 -31 0
-25 -32 0
-25 -33 0
-26 -27 0
-26 -28 0
-26 -29 0
-26 -30 0
-26 -31 0
-26 -32 0
-26 -33 0
-27 -28 0
-27 -29 0
-27 -30 0
-27 -31 0
-27 -32 0
-27 -33 0
-28 -29 0
-28 -30 0
-28 -31 0
-28 -32 0
-28 -33 0
-29 -30 0
-29 -31 0
-29 -32 0
-29 -33 0
-30 -31 0
-30 -32 0
-30 -33 0
-31 -32 0
-31 -33 0
-32 -33 0
-34 -35 0
-34 -36 0
-34 -37 0
-34 -38 0
-34 -39 0
-34 -40 0
-34 -41 0
-34 -42 0
-34 -43 0
-34 -44 0
-35 -36 0
-35 -37 0
-35 -38 0
-35 -39 0
-35 -40 0
-35 -41 0
-35 -42 0
-35 -43 0
-35 -44 0
-36 -37 0
-36 -38 0
-36 -39 0
-36 -40 0
-36 -41 0
-36 -42 0
-36 -43 0
-36 -44 0
-37 -38 0
-37 -39 0
-37 -40 0
-37 -41 0
-37 -42 0
-37 -43 0
-37 -44 0
-38 -39 0
-38 -40 0
-38 -41 0
-38 -42 0
-38 -43 0
-38 -44 0
-39 -40 0
-39 -41 0
-39 -42 0
-39 -43 0
-39 -44 0
-40 -41 0
-40 -42 0
-40 -43 0
-40 -44 0
-41 -42 0
-41 -43 0
-41 -44 0
-42 -43 0
-42 -44 0
-43 -44 0
-45 -46 0
-45 -47 0
-45 -48 0
-45 -49 0
-45 -50 0
-45 -51 0
-45 -52 0
-45 -53 0
-45 -54 0
-45 -55 0
-46 -47 0
-46 -48 0
-46 -49 0
-46 -50 0
-46 -51 0
-46 -52 0
-46 -53 0
-46 -54 0
-46 -55 0
-47 -48 0
-47 -49 0
-47 -50 0
-47 -51 0
-47 -52 0
-47 -53 0
-47 -54 0
-47 -55 0
-48 -49 0
-48 -50 0
-48 -51 0
-48 -52 0
-48 -53 0
-48 -54 0
-48 -55 0
-49 -50 0
-49 -51 0
-49 -52 0
-49 -53 0
-49 -54 0
-49 -55 0
-50 -51 0
-50 -52 0
-50 -53 0
-50 -54 0
-50 -55 0
-51 -52 0
-51 -53 0
-51 -54 0
-51 -55 0
-52 -53 0
-52 -54 0
-52 -55 0
-53 -54 0
-53 -55 0
-54 -55 0
-56 -57 0
-56 -58 0
-56 -59 0
-56 -60 0
-56 -61 0
-56 -62 0
-56 -63 0
-56 -64 0
-56 -65 0
-56 -66 0
-57 -58 0
-57 -59 0
-57 -60 0
-57 -61 0
-57 -62 0
-57 -63 0
-57 -64 0
-57 -65 0
-57 -66 0
-58 -59 0
-58 -60 0
-58 -61 0
-58 -62 0
-58 -63 0
-58 -64 0
-58 -65 0
-58 -66 0
-59 -60 0
-59 -61 0
-59 -62 0
-59 -63 0
-59 -64 0
-59 -65 0
-59 -66 0
-60 -61 0
-60 -62 0
-60 -63 0
-60 -64 0
-60 -65 0
-60 -66 0
-61 -62 0
-61 -63 0
-61 -64 0
-61 -65 0
-61 -66 0
-62 -63 0
-62 -64 0
-62 -65 0
-62 -66 0
-63 -64 0
-63 -65 0
-63 -66 0
-64 -65 0
-64 -66 0
-65 -66 0
-67 -68 0
-67 -69 0
-67 -70 0
-67 -71 0
-67 -72 0
-67 -73 0
-67 -74 0
-67 -75 0
-67 -76 0
-67 -77 0
-68 -69 0
-68 -70 0
-68 -71 0
-68 -72 0
-68 -73 0
-68 -74 0
-68 -75 0
-68 -76 0
-68 -77 0
-69 -70 0
-69 -71 0
-69 -72 0
-69 -73 0
-69 -74 0
-69 -75 0
-69 -76 0
-69 -77 0
-70 -71 0
-70 -72 0
-70 -73 0
-70 -74 0
-70 -75 0
-70 -76 0
-70 -77 0
-71 -72 0
-71 -73 0
-71 -74 0
-71 -75 0
-71 -76 0
-71 -77 0
-72 -73 0
-72 -74 0
-72 -75 0
-72 -76 0
-72 -77 0
-73 -74 0
-73 -75 0
-73 -76 0
-73 -77 0
-74 -75 0
-74 -76 0
-74 -77 0
-75 -76 0
-75 -77 0
-76 -77 0
-78 -79 0
-78 -80 0
-78 -81 0
-78 -82 0
-78 -83 0
-78 -84 0
-78 -85 0
-78 -86 0
-78 -87 0
-78 -88 0
-79 -80 0
-79 -81 0
-79 -82 0
-79 -83 0
-79 -84 0
-79 -85 0
-79 -86 0
-79 -87 0
-79 -88 0
-80 -81 0
-80 -82 0
-80 -83 0
-80 -84 0
-80 -85 0
-80 -86 0
-80 -87 0
-80 -88 0
-81 -82 0
-81 -83 0
-81 -84 0
-81 -85 0
-81 -86 0
-81 -87 0
-81 -88 0
-82 -83 0
-82 -84 0
-82 -85 0
-82 -86 0
-82 -87 0
-82 -88 0
-83 -84 0
-83 -85 0
-83 -86 0
-83 -87 0
-83 -88 0
-84 -85 0
-84 -86 0
-84 -87 0
-84 -88 0
-85 -86 0
-85 -87 0
-85 -88 0
-86 -87 0
-86 -88 0
-87 -88 0
-89 -90 0
-89 -91 0
-89 -92 0
-89 -93 0
-89 -94 0
-89 -95 0
-89 -96 0
-89 -97 0
-89 -98 0
-89 -99 0
-90 -91 0
-90 -92 0
-90 -93 0
-90 -94 0
-90 -95 0
-90 -96 0
-90 -97 0
-90 -98 0
-90 -99 0
-91 -92 0
-91 -93 0
-91 -94 0
-91 -95 0
-91 -96 0
-91 -97 0
-91 -98 0
-91 -99 0
-92 -93 0
-92 -94 0
-92 -95 0
-92 -96 0
-92 -97 0
-92 -98 0
-92 -99 0
-93 -94 0
-93 -95 0
-93 -96 0
-93 -97 0
-93 -98 0
-93 -99 0
-94 -95 0
-94 -96 0
-94 -97 0
-94 -98 0
-94 -99 0
-95 -96 0
-95 -97 0
-95 -98 0
-95 -99 0
-96 -97 0
-96 -98 0
-96 -99 0
-97 -98 0
-97 -99 0
-98 -99 0
-100 -101 0
-100 -102 0
-100 -103 0
-100 -104 0
-100 -105 0
-100 -106 0
-100 -107 0
-100 -108 0
-100 -109 0
-100 -110 0
-101 -102 0
-101 -103 0
-101 -104 0
-101 -105 0
-101 -106 0
-101 -107 0
-101 -108 0
-101 -109 0
-101 -110 0
-102 -103 0
-102 -104 0
-102 -105 0
-102 -106 0
-102 -107 0
-102 -108 0
-102 -109 0
-102 -110 0
-103 -104 0
-103 -105 0
-103 -106 0
-103 -107 0
-103 -108 0
-103 -109 0
-103 -110 0
-104 -105 0
-104 -106 0
-104 -107 0
-104 -108 0
-104 -109 0
-104 -110 0
-105 -106 0
-105 -107 0
-105 -108 0
-105 -109 0
-105 -110 0
-106 -107 0
-106 -108 0
-106 -109 0
-106 -110 0
-107 -108 0
-107 -109 0
-107 -110 0
-108 -109 0
-108 -110 0
-109 -110 0
-111 -112 0
-111 -113 0
-111 -114 0
-111 -115 0
-111 -116 0
-111 -117 0
-111 -118 0
-111 -119 0
-111 -120 0
-111 -121 0
-112 -113 0
-112 -114 0
-112 -115 0
-112 -116 0
-112 -117 0
-112 -118 0
-112 -119 0
-112 -120 0
-112 -121 0
-113 -114 0
-113 -115 0
-113 -116 0
-113 -117 0
-113 -118 0
-113 -119 0
-113 -120 0
-113 -121 0
-114 -115 0
-114 -116 0
-114 -117 0
-114 -118 0
-114 -119 0
-114 -120 0
-114 -121 0
-115 -116 0
-115 -117 0
-115 -118 0
-115 -119 0
-115 -120 0
-115 -121 0
-116 -117 0
-116 -118 0
-116 -119 0
-116 -120 0
-116 -121 0
-117 -118 0
-117 -119 0
-117 -120 0
-117 -121 0
-118 -119 0
-118 -120 0
-118 -121 0
-119 -120 0
-119 -121 0
-120 -121 0
1 12 23 34 45 56 67 78 89 100 111 0
2 13 24 35 46 57 68 79 90 101 112 0
3 14 25 36 47 58 69 80 91 102 113 0
4 15 26 37 48 59 70 81 92 103 114 0
5 16 27 38 49 60 71 82 93 104 115 0
6 17 28 39 50 61 72 83 94 105 116 0
7 18 29 40 51 62 73 84 95 106 117 0
8 19 30 41 52 63 74 85 96 107 118 0
9 20 31 42 53 64 75 86 97 108 119 0
10 21 32 43 54 65 76 87 98 109 120 0
11 22 33 44 55 66 77 88 99 110 121 0
-1 122 123 0
-122 1 0
-123 1 0
-2 124 0
-124 2 0
-3 125 0
-125 3 0
-4 126 127 0
-126 4 0
-127 4 0
-5 128 0
-128 5 0
-6 129 130 131 0
-129 6 0
-130 6 0
-131 6 0
-7 132 0
-132 7 0
-8 133 134 0
-133 8 0
-134 8 0
-9 135 136 0
-135 9 0
-136 9 0
-10 137 138 0
-137 10 0
-138 10 0
-11 0
-12 139 140 0
-139 12 0
-140 12 0
-13 141 0
-141 13 0
-14 142 0
-142 14 0
-15 143 144 0
-143 15 0
-144 15 0
-16 145 0
-145 16 0
-17 146 147 148 0
-146 17 0
-147 17 0
-148 17 0
-18 149 0
-149 18 0
-19 150 151 0
-150 19 0
-151 19 0
-20 152 153 0
-152 20 0
-153 20 0
-21 154 155 0
-154 21 0
-155 21 0
-22 0
-23 156 157 0
-156 23 0
-157 23 0
-24 158 0
-158 24 0
-25 159 0
-159 25 0
-26 160 161 0
-160 26 0
-161 26 0
-27 162 0
-162 27 0
-28 163 164 165 0
-163 28 0
-164 28 0
-165 28 0
-29 166 0
-166 29 0
-30 167 168 0
-167 30 0
-168 30 0
-31 169 170 0
-169 31 0
-170 31 0
-32 171 172 0
-171 32 0
-172 32 0
-33 0
-34 173 174 0
-173 34 0
-174 34 0
-35 175 0
-175 35 0
-36 176 0
-176 36 0
-37 177 178 0
-177 37 0
-178 37 0
-38 179 0
-179 38 0
-39 180 181 182 0
-180 39 0
-181 39 0
-182 39 0
-40 183 0
-183 40 0
-41 184 185 0
-184 41 0
-185 41 0
-42 186 187 0
-186 42 0
-187 42 0
-43 188 189 0
-188 43 0
-189 43 0
-44 0
-45 190 191 0
-190 45 0
-191 45 0
-46 192 0
-192 46 0
-47 193 0
-193 47 0
-48 194 195 0
-194 48 0
-195 48 0
-49 196 0
-196 49 0
-50 197 198 199 0
-197 50 0
-198 50 0
-199 50 0
-51 200 0
-200 51 0
-52 201 202 0
-201 52 0
-202 52 0
-53 203 204 0
-203 53 0
-204 53 0
-54 205 206 0
-205 54 0
-206 54 0
-55 0
-56 207 208 0
-207 56 0
-208 56 0
-57 209 0
-209 57 0
-58 210 0
-210 58 0
-59 211 212 0
-211 59 0
-212 59 0
-60 213 0
-213 60 0
-61 214 215 216 0
-214 61 0
-215 61 0
-216 61 0
-62 217 0
-217 62 0
-63 218 219 0
-218 63 0
-219 63 0
-64 220 221 0
-220 64 0
-221 64 0
-65 222 223 0
-222 65 0
-223 65 0
-66 0
-67 224 225 0
-224 67 0
-225 67 0
-68 226 0
-226 68 0
-69 227 0
-227 69 0
-70 228 229 0
-228 70 0
-229 70 0
-71 230 0
-230 71 0
-72 231 232 233 0
-231 72 0
-232 72 0
-233 72 0
-73 234 0
-234 73 0
-74 235 236 0
-235 74 0
-236 74 0
-75 237 238 0
-237 75 0
-238 75 0
-76 239 240 0
-239 76 0
-240 76 0
-77 0
-78 241 242 0
-241 78 0
-242 78 0
-79 243 0
-243 79 0
-80 244 0
-244 80 0
-81 245 246 0
-245 81 0
-246 81 0
-82 247 0
-247 82 0
-83 248 249 250 0
-248 83 0
-249 83 0
-250 83 0
-84 251 0
-251 84 0
-85 252 253 0
-252 85 0
-253 85 0
-86 254 255 0
-254 86 0
-255 86 0
-87 256 257 0
-256 87 0
-257 87 0
-88 0
-89 258 259 0
-258 89 0
-259 89 0
-90 260 0
-260 90 0
-91 261 0
-261 91 0
-92 262 263 0
-262 92 0
-263 92 0
-93 264 0
-264 93 0
-94 265 266 267 0
-265 94 0
-266 94 0
-267 94 0
-95 268 0
-268 95 0
-96 269 270 0
-269 96 0
-270 96 0
-97 271 272 0
-271 97 0
-272 97 0
-98 273 274 0
-273 98 0
-274 98 0
-99 0
-100 275 276 0
-275 100 0
-276 100 0
-101 277 0
-277 101 0
-102 278 0
-278 102 0
-103 279 280 0
-279 103 0
-280 103 0
-104 281 0
-281 104 0
-105 282 283 284 0
-282 105 0
-283 105 0
-284 105 0
-106 285 0
-285 106 0
-107 286 287 0
-286 107 0
-287 107 0
-108 288 289 0
-288 108 0
-289 108 0
-109 290 291 0
-290 109 0
-291 109 0
-110 0
-111 292 293 0
-292 111 0
-293 111 0
-112 294 0
-294 112 0
-113 295 0
-295 113 0
-114 296 297 0
-296 114 0
-297 114 0
-115 298 0
-298 115 0
-116 299 300 301 0
-299 116 0
-300 116 0
-301 116 0
-117 302 0
-302 117 0
-118 303 304 0
-303 118 0
-304 118 0
-119 305 306 0
-305 119 0
-306 119 0
-120 307 308 0
-307 120 0
-308 120 0
-121 0
-122 0
-123 0
-124 0
-125 0
-126 0
-127 0
-128 0
-129 0
-130 0
-131 0
-132 0
-133 0
-134 0
-135 0
-136 0
-137 0
-139 2 0
-140 3 0
-141 1 0
-142 1 0
-143 6 0
-144 9 0
-145 6 0
-146 4 0
-147 5 0
-148 7 0
-149 6 0
-150 10 0
-151 9 0
-152 4 0
-153 8 0
-154 8 0
-156 2 13 0
-157 3 14 0
-158 1 12 0
-159 1 12 0
-160 6 17 0
-161 9 20 0
-162 6 17 0
-163 4 15 0
-164 5 16 0
-165 7 18 0
-166 6 17 0
-167 10 21 0
-168 9 20 0
-169 4 15 0
-170 8 19 0
-171 8 19 0
-173 2 13 24 0
-174 3 14 25 0
-175 1 12 23 0
-176 1 12 23 0
-177 6 17 28 0
-178 9 20 31 0
-179 6 17 28 0
-180 4 15 26 0
-181 5 16 27 0
-182 7 18 29 0
-183 6 17 28 0
-184 10 21 32 0
-185 9 20 31 0
-186 4 15 26 0
-187 8 19 30 0
-188 8 19 30 0
-190 2 13 24 35 0
-191 3 14 25 36 0
-192 1 12 23 34 0
-193 1 12 23 34 0
-194 6 17 28 39 0
-195 9 20 31 42 0
-196 6 17 28 39 0
-197 4 15 26 37 0
-198 5 16 27 38 0
-199 7 18 29 40 0
-200 6 17 28 39 0
-201 10 21 32 43 0
-202 9 20 31 42 0
-203 4 15 26 37 0
-204 8 19 30 41 0
-205 8 19 30 41 0
-207 2 13 24 35 46 0
-208 3 14 25 36 47 0
-209 1 12 23 34 45 0
-210 1 12 23 34 45 0
-211 6 17 28 39 50 0
-212 9 20 31 42 53 0
-213 6 17 28 39 50 0
-214 4 15 26 37 48 0
-215 5 16 27 38 49 0
-216 7 18 29 40 51 0
-217 6 17 28 39 50 0
-218 10 21 32 43 54 0
-219 9 20 31 42 53 0
-220 4 15 26 37 48 0
-221 8 19 30 41 52 0
-222 8 19 30 41 52 0
-224 2 13 24 35 46 57 0
-225 3 14 25 36 47 58 0
-226 1 12 23 34 45 56 0
-227 1 12 23 34 45 56 0
-228 6 17 28 39 50 61 0
-229 9 20 31 42 53 64 0
-230 6 17 28 39 50 61 0
-231 4 15 26 37 48 59 0
-232 5 16 27 38 49 60 0
-233 7 18 29 40 51 62 0
-234 6 17 28 39 50 61 0
-235 10 21 32 43 54 65 0
-236 9 20 31 42 53 64 0
-237 4 15 26 37 48 59 0
-238 8 19 30 41 52 63 0
-239 8 19 30 41 52 63 0
-241 2 13 24 35 46 57 68 0
-242 3 14 25 36 47 58 69 0
-243 1 12 23 34 45 56 67 0
-244 1 12 23 34 45 56 67 0
-245 6 17 28 39 50 61 72 0
-246 9 20 31 42 53 64 75 0
-247 6 17 28 39 50 61 72 0
-248 4 15 26 37 48 59 70 0
-249 5 16 27 38 49 60 71 0
-250 7 18 29 40 51 62 73 0
-251 6 17 28 39 50 61 72 0
-252 10 21 32 43 54 65 76 0
-253 9 20 31 42 53 64 75 0
-254 4 15 26 37 48 59 70 0
-255 8 19 30 41 52 63 74 0
-256 8 19 30 41 52 63 74 0
-258 2 13 24 35 46 57 68 79 0
-259 3 14 25 36 47 58 69 80 0
-260 1 12 23 34 45 56 67 78 0
-261 1 12 23 34 45 56 67 78 0
-262 6 17 28 39 50 61 72 83 0
-263 9 20 31 42 53 64 75 86 0
-264 6 17 28 39 50 61 72 83 0
-265 4 15 26 37 48 59 70 81 0
-266 5 16 27 38 49 60 71 82 0
-267 7 18 29 40 51 62 73 84 0
-268 6 17 28 39 50 61 72 83 0
-269 10 21 32 43 54 65 76 87 0
-270 9 20 31 42 53 64 75 86 0
-271 4 15 26 37 48 59 70 81 0
-272 8 19 30 41 52 63 74 85 0
-273 8 19 30 41 52 63 74 85 0
-275 2 13 24 35 46 57 68 79 90 0
-276 3 14 25 36 47 58 69 80 91 0
-277 1 12 23 34 45 56 67 78 89 0
-278 1 12 23 34 45 56 67 78 89 0
-279 6 17 28 39 50 61 72 83 94 0
-280 9 20 31 42 53 64 75 86 97 0
-281 6 17 28 39 50 61 72 83 94 0
-282 4 15 26 37 48 59 70 81 92 0
-283 5 16 27 38 49 60 71 82 93 0
-284 7 18 29 40 51 62 73 84 95 0
-285 6 17 28 39 50 61 72 83 94 0
-286 10 21 32 43 54 65 76 87 98 0
-287 9 20 31 42 53 64 75 86 97 0
-288 4 15 26 37 48 59 70 81 92 0
-289 8 19 30 41 52 63 74 85 96 0
-290 8 19 30 41 52 63 74 85 96 0
-292 2 13 24 35 46 57 68 79 90 101 0
-293 3 14 25 36 47 58 69 80 91 102 0
-294 1 12 23 34 45 56 67 78 89 100 0
-295 1 12 23 34 45 56 67 78 89 100 0
-296 6 17 28 39 50 61 72 83 94 105 0
-297 9 20 31 42 53 64 75 86 97 108 0
-298 6 17 28 39 50 61 72 83 94 105 0
-299 4 15 26 37 48 59 70 81 92 103 0
-300 5 16 27 38 49 60 71 82 93 104 0
-301 7 18 29 40 51 62 73 84 95 106 0
-302 6 17 28 39 50 61 72 83 94 105 0
-303 10 21 32 43 54 65 76 87 98 109 0
-304 9 20 31 42 53 64 75 86 97 108 0
-305 4 15 26 37 48 59 70 81 92 103 0
-306 8 19 30 41 52 63 74 85 96 107 0
-307 8 19 30 41 52 63 74 85 96 107 0
