%%MatrixMarket matrix coordinate integer general
%
8 234 314
1 120 1
1 121 1
1 129 1
1 130 1
1 138 1
1 139 1
1 147 1
1 148 1
1 156 1
1 157 1
1 165 1
1 166 1
1 174 1
1 175 1
1 183 1
1 184 1
1 192 1
1 193 1
1 201 1
1 202 1
1 210 1
1 211 1
1 219 1
1 220 1
1 228 1
1 229 1
2 118 1
2 122 1
2 127 1
2 131 1
2 136 1
2 140 1
2 145 1
2 149 1
2 154 1
2 158 1
2 163 1
2 167 1
2 172 1
2 176 1
2 181 1
2 185 1
2 190 1
2 194 1
2 199 1
2 203 1
2 208 1
2 212 1
2 217 1
2 221 1
2 226 1
2 230 1
3 119 1
3 123 1
3 128 1
3 132 1
3 137 1
3 141 1
3 146 1
3 150 1
3 155 1
3 159 1
3 164 1
3 168 1
3 173 1
3 177 1
3 182 1
3 186 1
3 191 1
3 195 1
3 200 1
3 204 1
3 209 1
3 213 1
3 218 1
3 222 1
3 227 1
3 231 1
4 119 1
4 124 1
4 128 1
4 133 1
4 137 1
4 142 1
4 146 1
4 151 1
4 155 1
4 160 1
4 164 1
4 169 1
4 173 1
4 178 1
4 182 1
4 187 1
4 191 1
4 196 1
4 200 1
4 205 1
4 209 1
4 214 1
4 218 1
4 223 1
4 227 1
4 232 1
5 1 1
5 2 1
5 3 1
5 124 1
5 125 1
5 126 1
5 133 1
5 134 1
5 135 1
5 136 1
5 137 1
5 138 1
5 139 1
5 140 1
5 141 1
5 142 1
5 143 1
5 144 1
5 148 1
5 149 1
5 150 1
5 157 1
5 158 1
5 159 1
5 160 1
5 161 1
5 162 1
5 166 1
5 167 1
5 168 1
5 169 1
5 170 1
5 171 1
5 172 1
5 173 1
5 174 1
5 175 1
5 176 1
5 177 1
5 193 1
5 194 1
5 195 1
5 196 1
5 197 1
5 198 1
5 199 1
5 200 1
5 201 1
5 205 1
5 206 1
5 207 1
5 211 1
5 212 1
5 213 1
5 214 1
5 215 1
5 216 1
5 226 1
5 227 1
5 228 1
6 1 1
6 4 1
6 118 1
6 123 1
6 124 1
6 127 1
6 128 1
6 131 1
6 135 1
6 137 1
6 140 1
6 145 1
6 146 1
6 149 1
6 150 1
6 151 1
6 155 1
6 160 1
6 162 1
6 169 1
6 171 1
6 173 1
6 176 1
6 178 1
6 182 1
6 186 1
6 187 1
6 189 1
6 190 1
6 194 1
6 195 1
6 199 1
6 205 1
6 208 1
6 209 1
6 212 1
6 213 1
6 217 1
6 218 1
6 221 1
6 223 1
6 225 1
6 226 1
6 227 1
7 2 1
7 5 1
7 119 1
7 121 1
7 125 1
7 128 1
7 129 1
7 132 1
7 133 1
7 138 1
7 141 1
7 146 1
7 147 1
7 148 1
7 150 1
7 152 1
7 156 1
7 160 1
7 161 1
7 169 1
7 170 1
7 174 1
7 177 1
7 179 1
7 183 1
7 184 1
7 187 1
7 188 1
7 191 1
7 193 1
7 195 1
7 200 1
7 206 1
7 209 1
7 210 1
7 211 1
7 213 1
7 218 1
7 219 1
7 222 1
7 223 1
7 224 1
7 227 1
7 228 1
8 1 1
8 2 1
8 6 1
8 120 1
8 122 1
8 124 1
8 125 1
8 127 1
8 129 1
8 130 1
8 133 1
8 135 1
8 137 1
8 138 1
8 140 1
8 141 1
8 142 1
8 143 1
8 144 1
8 145 1
8 147 1
8 150 1
8 153 1
8 154 1
8 157 1
8 158 1
8 159 1
8 160 1
8 166 1
8 167 1
8 168 1
8 169 1
8 173 1
8 174 1
8 176 1
8 177 1
8 180 1
8 181 1
8 185 1
8 188 1
8 189 1
8 192 1
8 195 1
8 196 1
8 197 1
8 198 1
8 199 1
8 200 1
8 205 1
8 206 1
8 208 1
8 210 1
8 213 1
8 214 1
8 215 1
8 216 1
8 217 1
8 219 1
8 220 1
8 224 1
8 225 1
8 227 1
