%%MatrixMarket matrix coordinate integer general
%
117 234 702
1 1 1
1 9 1
1 68 1
1 118 1
1 121 1
1 133 1
2 2 1
2 7 1
2 69 1
2 119 1
2 122 1
2 134 1
3 3 1
3 8 1
3 67 1
3 120 1
3 123 1
3 135 1
4 4 1
4 12 1
4 71 1
4 121 1
4 124 1
4 136 1
5 5 1
5 10 1
5 72 1
5 122 1
5 125 1
5 137 1
6 6 1
6 11 1
6 70 1
6 123 1
6 126 1
6 138 1
7 7 1
7 15 1
7 74 1
7 124 1
7 127 1
7 139 1
8 8 1
8 13 1
8 75 1
8 125 1
8 128 1
8 140 1
9 9 1
9 14 1
9 73 1
9 126 1
9 129 1
9 141 1
10 10 1
10 18 1
10 77 1
10 127 1
10 130 1
10 142 1
11 11 1
11 16 1
11 78 1
11 128 1
11 131 1
11 143 1
12 12 1
12 17 1
12 76 1
12 129 1
12 132 1
12 144 1
13 13 1
13 21 1
13 80 1
13 130 1
13 133 1
13 145 1
14 14 1
14 19 1
14 81 1
14 131 1
14 134 1
14 146 1
15 15 1
15 20 1
15 79 1
15 132 1
15 135 1
15 147 1
16 16 1
16 24 1
16 83 1
16 133 1
16 136 1
16 148 1
17 17 1
17 22 1
17 84 1
17 134 1
17 137 1
17 149 1
18 18 1
18 23 1
18 82 1
18 135 1
18 138 1
18 150 1
19 19 1
19 27 1
19 86 1
19 136 1
19 139 1
19 151 1
20 20 1
20 25 1
20 87 1
20 137 1
20 140 1
20 152 1
21 21 1
21 26 1
21 85 1
21 138 1
21 141 1
21 153 1
22 22 1
22 30 1
22 89 1
22 139 1
22 142 1
22 154 1
23 23 1
23 28 1
23 90 1
23 140 1
23 143 1
23 155 1
24 24 1
24 29 1
24 88 1
24 141 1
24 144 1
24 156 1
25 25 1
25 33 1
25 92 1
25 142 1
25 145 1
25 157 1
26 26 1
26 31 1
26 93 1
26 143 1
26 146 1
26 158 1
27 27 1
27 32 1
27 91 1
27 144 1
27 147 1
27 159 1
28 28 1
28 36 1
28 95 1
28 145 1
28 148 1
28 160 1
29 29 1
29 34 1
29 96 1
29 146 1
29 149 1
29 161 1
30 30 1
30 35 1
30 94 1
30 147 1
30 150 1
30 162 1
31 31 1
31 39 1
31 98 1
31 148 1
31 151 1
31 163 1
32 32 1
32 37 1
32 99 1
32 149 1
32 152 1
32 164 1
33 33 1
33 38 1
33 97 1
33 150 1
33 153 1
33 165 1
34 34 1
34 42 1
34 101 1
34 151 1
34 154 1
34 166 1
35 35 1
35 40 1
35 102 1
35 152 1
35 155 1
35 167 1
36 36 1
36 41 1
36 100 1
36 153 1
36 156 1
36 168 1
37 37 1
37 45 1
37 104 1
37 154 1
37 157 1
37 169 1
38 38 1
38 43 1
38 105 1
38 155 1
38 158 1
38 170 1
39 39 1
39 44 1
39 103 1
39 156 1
39 159 1
39 171 1
40 40 1
40 48 1
40 107 1
40 157 1
40 160 1
40 172 1
41 41 1
41 46 1
41 108 1
41 158 1
41 161 1
41 173 1
42 42 1
42 47 1
42 106 1
42 159 1
42 162 1
42 174 1
43 43 1
43 51 1
43 110 1
43 160 1
43 163 1
43 175 1
44 44 1
44 49 1
44 111 1
44 161 1
44 164 1
44 176 1
45 45 1
45 50 1
45 109 1
45 162 1
45 165 1
45 177 1
46 46 1
46 54 1
46 113 1
46 163 1
46 166 1
46 178 1
47 47 1
47 52 1
47 114 1
47 164 1
47 167 1
47 179 1
48 48 1
48 53 1
48 112 1
48 165 1
48 168 1
48 180 1
49 49 1
49 57 1
49 116 1
49 166 1
49 169 1
49 181 1
50 50 1
50 55 1
50 117 1
50 167 1
50 170 1
50 182 1
51 51 1
51 56 1
51 115 1
51 168 1
51 171 1
51 183 1
52 2 1
52 52 1
52 60 1
52 169 1
52 172 1
52 184 1
53 3 1
53 53 1
53 58 1
53 170 1
53 173 1
53 185 1
54 1 1
54 54 1
54 59 1
54 171 1
54 174 1
54 186 1
55 5 1
55 55 1
55 63 1
55 172 1
55 175 1
55 187 1
56 6 1
56 56 1
56 61 1
56 173 1
56 176 1
56 188 1
57 4 1
57 57 1
57 62 1
57 174 1
57 177 1
57 189 1
58 8 1
58 58 1
58 66 1
58 175 1
58 178 1
58 190 1
59 9 1
59 59 1
59 64 1
59 176 1
59 179 1
59 191 1
60 7 1
60 60 1
60 65 1
60 177 1
60 180 1
60 192 1
61 11 1
61 61 1
61 69 1
61 178 1
61 181 1
61 193 1
62 12 1
62 62 1
62 67 1
62 179 1
62 182 1
62 194 1
63 10 1
63 63 1
63 68 1
63 180 1
63 183 1
63 195 1
64 14 1
64 64 1
64 72 1
64 181 1
64 184 1
64 196 1
65 15 1
65 65 1
65 70 1
65 182 1
65 185 1
65 197 1
66 13 1
66 66 1
66 71 1
66 183 1
66 186 1
66 198 1
67 17 1
67 67 1
67 75 1
67 184 1
67 187 1
67 199 1
68 18 1
68 68 1
68 73 1
68 185 1
68 188 1
68 200 1
69 16 1
69 69 1
69 74 1
69 186 1
69 189 1
69 201 1
70 20 1
70 70 1
70 78 1
70 187 1
70 190 1
70 202 1
71 21 1
71 71 1
71 76 1
71 188 1
71 191 1
71 203 1
72 19 1
72 72 1
72 77 1
72 189 1
72 192 1
72 204 1
73 23 1
73 73 1
73 81 1
73 190 1
73 193 1
73 205 1
74 24 1
74 74 1
74 79 1
74 191 1
74 194 1
74 206 1
75 22 1
75 75 1
75 80 1
75 192 1
75 195 1
75 207 1
76 26 1
76 76 1
76 84 1
76 193 1
76 196 1
76 208 1
77 27 1
77 77 1
77 82 1
77 194 1
77 197 1
77 209 1
78 25 1
78 78 1
78 83 1
78 195 1
78 198 1
78 210 1
79 29 1
79 79 1
79 87 1
79 196 1
79 199 1
79 211 1
80 30 1
80 80 1
80 85 1
80 197 1
80 200 1
80 212 1
81 28 1
81 81 1
81 86 1
81 198 1
81 201 1
81 213 1
82 32 1
82 82 1
82 90 1
82 199 1
82 202 1
82 214 1
83 33 1
83 83 1
83 88 1
83 200 1
83 203 1
83 215 1
84 31 1
84 84 1
84 89 1
84 201 1
84 204 1
84 216 1
85 35 1
85 85 1
85 93 1
85 202 1
85 205 1
85 217 1
86 36 1
86 86 1
86 91 1
86 203 1
86 206 1
86 218 1
87 34 1
87 87 1
87 92 1
87 204 1
87 207 1
87 219 1
88 38 1
88 88 1
88 96 1
88 205 1
88 208 1
88 220 1
89 39 1
89 89 1
89 94 1
89 206 1
89 209 1
89 221 1
90 37 1
90 90 1
90 95 1
90 207 1
90 210 1
90 222 1
91 41 1
91 91 1
91 99 1
91 208 1
91 211 1
91 223 1
92 42 1
92 92 1
92 97 1
92 209 1
92 212 1
92 224 1
93 40 1
93 93 1
93 98 1
93 210 1
93 213 1
93 225 1
94 44 1
94 94 1
94 102 1
94 211 1
94 214 1
94 226 1
95 45 1
95 95 1
95 100 1
95 212 1
95 215 1
95 227 1
96 43 1
96 96 1
96 101 1
96 213 1
96 216 1
96 228 1
97 47 1
97 97 1
97 105 1
97 214 1
97 217 1
97 229 1
98 48 1
98 98 1
98 103 1
98 215 1
98 218 1
98 230 1
99 46 1
99 99 1
99 104 1
99 216 1
99 219 1
99 231 1
100 50 1
100 100 1
100 108 1
100 217 1
100 220 1
100 232 1
101 51 1
101 101 1
101 106 1
101 218 1
101 221 1
101 233 1
102 49 1
102 102 1
102 107 1
102 219 1
102 222 1
102 234 1
103 53 1
103 103 1
103 111 1
103 118 1
103 220 1
103 223 1
104 54 1
104 104 1
104 109 1
104 119 1
104 221 1
104 224 1
105 52 1
105 105 1
105 110 1
105 120 1
105 222 1
105 225 1
106 56 1
106 106 1
106 114 1
106 121 1
106 223 1
106 226 1
107 57 1
107 107 1
107 112 1
107 122 1
107 224 1
107 227 1
108 55 1
108 108 1
108 113 1
108 123 1
108 225 1
108 228 1
109 59 1
109 109 1
109 117 1
109 124 1
109 226 1
109 229 1
110 60 1
110 110 1
110 115 1
110 125 1
110 227 1
110 230 1
111 58 1
111 111 1
111 116 1
111 126 1
111 228 1
111 231 1
112 3 1
112 62 1
112 112 1
112 127 1
112 229 1
112 232 1
113 1 1
113 63 1
113 113 1
113 128 1
113 230 1
113 233 1
114 2 1
114 61 1
114 114 1
114 129 1
114 231 1
114 234 1
115 6 1
115 65 1
115 115 1
115 118 1
115 130 1
115 232 1
116 4 1
116 66 1
116 116 1
116 119 1
116 131 1
116 233 1
117 5 1
117 64 1
117 117 1
117 120 1
117 132 1
117 234 1
