%%MatrixMarket matrix coordinate integer general
%
117 234 702
1 1 1
1 5 1
1 72 1
1 118 1
1 121 1
1 133 1
2 2 1
2 6 1
2 70 1
2 119 1
2 122 1
2 134 1
3 3 1
3 4 1
3 71 1
3 120 1
3 123 1
3 135 1
4 4 1
4 8 1
4 75 1
4 121 1
4 124 1
4 136 1
5 5 1
5 9 1
5 73 1
5 122 1
5 125 1
5 137 1
6 6 1
6 7 1
6 74 1
6 123 1
6 126 1
6 138 1
7 7 1
7 11 1
7 78 1
7 124 1
7 127 1
7 139 1
8 8 1
8 12 1
8 76 1
8 125 1
8 128 1
8 140 1
9 9 1
9 10 1
9 77 1
9 126 1
9 129 1
9 141 1
10 10 1
10 14 1
10 81 1
10 127 1
10 130 1
10 142 1
11 11 1
11 15 1
11 79 1
11 128 1
11 131 1
11 143 1
12 12 1
12 13 1
12 80 1
12 129 1
12 132 1
12 144 1
13 13 1
13 17 1
13 84 1
13 130 1
13 133 1
13 145 1
14 14 1
14 18 1
14 82 1
14 131 1
14 134 1
14 146 1
15 15 1
15 16 1
15 83 1
15 132 1
15 135 1
15 147 1
16 16 1
16 20 1
16 87 1
16 133 1
16 136 1
16 148 1
17 17 1
17 21 1
17 85 1
17 134 1
17 137 1
17 149 1
18 18 1
18 19 1
18 86 1
18 135 1
18 138 1
18 150 1
19 19 1
19 23 1
19 90 1
19 136 1
19 139 1
19 151 1
20 20 1
20 24 1
20 88 1
20 137 1
20 140 1
20 152 1
21 21 1
21 22 1
21 89 1
21 138 1
21 141 1
21 153 1
22 22 1
22 26 1
22 93 1
22 139 1
22 142 1
22 154 1
23 23 1
23 27 1
23 91 1
23 140 1
23 143 1
23 155 1
24 24 1
24 25 1
24 92 1
24 141 1
24 144 1
24 156 1
25 25 1
25 29 1
25 96 1
25 142 1
25 145 1
25 157 1
26 26 1
26 30 1
26 94 1
26 143 1
26 146 1
26 158 1
27 27 1
27 28 1
27 95 1
27 144 1
27 147 1
27 159 1
28 28 1
28 32 1
28 99 1
28 145 1
28 148 1
28 160 1
29 29 1
29 33 1
29 97 1
29 146 1
29 149 1
29 161 1
30 30 1
30 31 1
30 98 1
30 147 1
30 150 1
30 162 1
31 31 1
31 35 1
31 102 1
31 148 1
31 151 1
31 163 1
32 32 1
32 36 1
32 100 1
32 149 1
32 152 1
32 164 1
33 33 1
33 34 1
33 101 1
33 150 1
33 153 1
33 165 1
34 34 1
34 38 1
34 105 1
34 151 1
34 154 1
34 166 1
35 35 1
35 39 1
35 103 1
35 152 1
35 155 1
35 167 1
36 36 1
36 37 1
36 104 1
36 153 1
36 156 1
36 168 1
37 37 1
37 41 1
37 108 1
37 154 1
37 157 1
37 169 1
38 38 1
38 42 1
38 106 1
38 155 1
38 158 1
38 170 1
39 39 1
39 40 1
39 107 1
39 156 1
39 159 1
39 171 1
40 40 1
40 44 1
40 111 1
40 157 1
40 160 1
40 172 1
41 41 1
41 45 1
41 109 1
41 158 1
41 161 1
41 173 1
42 42 1
42 43 1
42 110 1
42 159 1
42 162 1
42 174 1
43 43 1
43 47 1
43 114 1
43 160 1
43 163 1
43 175 1
44 44 1
44 48 1
44 112 1
44 161 1
44 164 1
44 176 1
45 45 1
45 46 1
45 113 1
45 162 1
45 165 1
45 177 1
46 46 1
46 50 1
46 117 1
46 163 1
46 166 1
46 178 1
47 47 1
47 51 1
47 115 1
47 164 1
47 167 1
47 179 1
48 48 1
48 49 1
48 116 1
48 165 1
48 168 1
48 180 1
49 3 1
49 49 1
49 53 1
49 166 1
49 169 1
49 181 1
50 1 1
50 50 1
50 54 1
50 167 1
50 170 1
50 182 1
51 2 1
51 51 1
51 52 1
51 168 1
51 171 1
51 183 1
52 6 1
52 52 1
52 56 1
52 169 1
52 172 1
52 184 1
53 4 1
53 53 1
53 57 1
53 170 1
53 173 1
53 185 1
54 5 1
54 54 1
54 55 1
54 171 1
54 174 1
54 186 1
55 9 1
55 55 1
55 59 1
55 172 1
55 175 1
55 187 1
56 7 1
56 56 1
56 60 1
56 173 1
56 176 1
56 188 1
57 8 1
57 57 1
57 58 1
57 174 1
57 177 1
57 189 1
58 12 1
58 58 1
58 62 1
58 175 1
58 178 1
58 190 1
59 10 1
59 59 1
59 63 1
59 176 1
59 179 1
59 191 1
60 11 1
60 60 1
60 61 1
60 177 1
60 180 1
60 192 1
61 15 1
61 61 1
61 65 1
61 178 1
61 181 1
61 193 1
62 13 1
62 62 1
62 66 1
62 179 1
62 182 1
62 194 1
63 14 1
63 63 1
63 64 1
63 180 1
63 183 1
63 195 1
64 18 1
64 64 1
64 68 1
64 181 1
64 184 1
64 196 1
65 16 1
65 65 1
65 69 1
65 182 1
65 185 1
65 197 1
66 17 1
66 66 1
66 67 1
66 183 1
66 186 1
66 198 1
67 21 1
67 67 1
67 71 1
67 184 1
67 187 1
67 199 1
68 19 1
68 68 1
68 72 1
68 185 1
68 188 1
68 200 1
69 20 1
69 69 1
69 70 1
69 186 1
69 189 1
69 201 1
70 24 1
70 70 1
70 74 1
70 187 1
70 190 1
70 202 1
71 22 1
71 71 1
71 75 1
71 188 1
71 191 1
71 203 1
72 23 1
72 72 1
72 73 1
72 189 1
72 192 1
72 204 1
73 27 1
73 73 1
73 77 1
73 190 1
73 193 1
73 205 1
74 25 1
74 74 1
74 78 1
74 191 1
74 194 1
74 206 1
75 26 1
75 75 1
75 76 1
75 192 1
75 195 1
75 207 1
76 30 1
76 76 1
76 80 1
76 193 1
76 196 1
76 208 1
77 28 1
77 77 1
77 81 1
77 194 1
77 197 1
77 209 1
78 29 1
78 78 1
78 79 1
78 195 1
78 198 1
78 210 1
79 33 1
79 79 1
79 83 1
79 196 1
79 199 1
79 211 1
80 31 1
80 80 1
80 84 1
80 197 1
80 200 1
80 212 1
81 32 1
81 81 1
81 82 1
81 198 1
81 201 1
81 213 1
82 36 1
82 82 1
82 86 1
82 199 1
82 202 1
82 214 1
83 34 1
83 83 1
83 87 1
83 200 1
83 203 1
83 215 1
84 35 1
84 84 1
84 85 1
84 201 1
84 204 1
84 216 1
85 39 1
85 85 1
85 89 1
85 202 1
85 205 1
85 217 1
86 37 1
86 86 1
86 90 1
86 203 1
86 206 1
86 218 1
87 38 1
87 87 1
87 88 1
87 204 1
87 207 1
87 219 1
88 42 1
88 88 1
88 92 1
88 205 1
88 208 1
88 220 1
89 40 1
89 89 1
89 93 1
89 206 1
89 209 1
89 221 1
90 41 1
90 90 1
90 91 1
90 207 1
90 210 1
90 222 1
91 45 1
91 91 1
91 95 1
91 208 1
91 211 1
91 223 1
92 43 1
92 92 1
92 96 1
92 209 1
92 212 1
92 224 1
93 44 1
93 93 1
93 94 1
93 210 1
93 213 1
93 225 1
94 48 1
94 94 1
94 98 1
94 211 1
94 214 1
94 226 1
95 46 1
95 95 1
95 99 1
95 212 1
95 215 1
95 227 1
96 47 1
96 96 1
96 97 1
96 213 1
96 216 1
96 228 1
97 51 1
97 97 1
97 101 1
97 214 1
97 217 1
97 229 1
98 49 1
98 98 1
98 102 1
98 215 1
98 218 1
98 230 1
99 50 1
99 99 1
99 100 1
99 216 1
99 219 1
99 231 1
100 54 1
100 100 1
100 104 1
100 217 1
100 220 1
100 232 1
101 52 1
101 101 1
101 105 1
101 218 1
101 221 1
101 233 1
102 53 1
102 102 1
102 103 1
102 219 1
102 222 1
102 234 1
103 57 1
103 103 1
103 107 1
103 118 1
103 220 1
103 223 1
104 55 1
104 104 1
104 108 1
104 119 1
104 221 1
104 224 1
105 56 1
105 105 1
105 106 1
105 120 1
105 222 1
105 225 1
106 60 1
106 106 1
106 110 1
106 121 1
106 223 1
106 226 1
107 58 1
107 107 1
107 111 1
107 122 1
107 224 1
107 227 1
108 59 1
108 108 1
108 109 1
108 123 1
108 225 1
108 228 1
109 63 1
109 109 1
109 113 1
109 124 1
109 226 1
109 229 1
110 61 1
110 110 1
110 114 1
110 125 1
110 227 1
110 230 1
111 62 1
111 111 1
111 112 1
111 126 1
111 228 1
111 231 1
112 66 1
112 112 1
112 116 1
112 127 1
112 229 1
112 232 1
113 64 1
113 113 1
113 117 1
113 128 1
113 230 1
113 233 1
114 65 1
114 114 1
114 115 1
114 129 1
114 231 1
114 234 1
115 2 1
115 69 1
115 115 1
115 118 1
115 130 1
115 232 1
116 3 1
116 67 1
116 116 1
116 119 1
116 131 1
116 233 1
117 1 1
117 68 1
117 117 1
117 120 1
117 132 1
117 234 1
