p cnf 897 2181
-1 -2 0
-1 -3 0
-1 -4 0
-1 -5 0
-1 -6 0
-1 -7 0
-1 -8 0
-1 -9 0
-1 -10 0
-1 -11 0
-1 -12 0
-2 -3 0
-2 -4 0
-2 -5 0
-2 -6 0
-2 -7 0
-2 -8 0
-2 -9 0
-2 -10 0
-2 -11 0
-2 -12 0
-3 -4 0
-3 -5 0
-3 -6 0
-3 -7 0
-3 -8 0
-3 -9 0
-3 -10 0
-3 -11 0
-3 -12 0
-4 -5 0
-4 -6 0
-4 -7 0
-4 -8 0
-4 -9 0
-4 -10 0
-4 -11 0
-4 -12 0
-5 -6 0
-5 -7 0
-5 -8 0
-5 -9 0
-5 -10 0
-5 -11 0
-5 -12 0
-6 -7 0
-6 -8 0
-6 -9 0
-6 -10 0
-6 -11 0
-6 -12 0
-7 -8 0
-7 -9 0
-7 -10 0
-7 -11 0
-7 -12 0
-8 -9 0
-8 -10 0
-8 -11 0
-8 -12 0
-9 -10 0
-9 -11 0
-9 -12 0
-10 -11 0
-10 -12 0
-11 -12 0
-166 145 0
-167 146 1 0
-168 147 2 0
-169 148 3 0
-170 149 4 0
-171 150 5 0
-172 151 6 0
-173 152 7 0
-174 153 8 0
-175 154 9 0
-176 155 10 0
-177 156 0
-178 157 11 0
-179 158 12 0
-180 159 0
-181 160 0
-182 161 0
-183 162 0
-184 163 0
-185 164 0
-186 165 0
-13 -14 0
-13 -15 0
-13 -16 0
-13 -17 0
-13 -18 0
-13 -19 0
-13 -20 0
-13 -21 0
-13 -22 0
-13 -23 0
-13 -24 0
-14 -15 0
-14 -16 0
-14 -17 0
-14 -18 0
-14 -19 0
-14 -20 0
-14 -21 0
-14 -22 0
-14 -23 0
-14 -24 0
-15 -16 0
-15 -17 0
-15 -18 0
-15 -19 0
-15 -20 0
-15 -21 0
-15 -22 0
-15 -23 0
-15 -24 0
-16 -17 0
-16 -18 0
-16 -19 0
-16 -20 0
-16 -21 0
-16 -22 0
-16 -23 0
-16 -24 0
-17 -18 0
-17 -19 0
-17 -20 0
-17 -21 0
-17 -22 0
-17 -23 0
-17 -24 0
-18 -19 0
-18 -20 0
-18 -21 0
-18 -22 0
-18 -23 0
-18 -24 0
-19 -20 0
-19 -21 0
-19 -22 0
-19 -23 0
-19 -24 0
-20 -21 0
-20 -22 0
-20 -23 0
-20 -24 0
-21 -22 0
-21 -23 0
-21 -24 0
-22 -23 0
-22 -24 0
-23 -24 0
-187 166 0
-188 167 13 0
-189 168 14 0
-190 169 15 0
-191 170 16 0
-192 171 17 0
-193 172 18 0
-194 173 19 0
-195 174 20 0
-196 175 21 0
-197 176 22 0
-198 177 0
-199 178 23 0
-200 179 24 0
-201 180 0
-202 181 0
-203 182 0
-204 183 0
-205 184 0
-206 185 0
-207 186 0
-25 -26 0
-25 -27 0
-25 -28 0
-25 -29 0
-25 -30 0
-25 -31 0
-25 -32 0
-25 -33 0
-25 -34 0
-25 -35 0
-25 -36 0
-26 -27 0
-26 -28 0
-26 -29 0
-26 -30 0
-26 -31 0
-26 -32 0
-26 -33 0
-26 -34 0
-26 -35 0
-26 -36 0
-27 -28 0
-27 -29 0
-27 -30 0
-27 -31 0
-27 -32 0
-27 -33 0
-27 -34 0
-27 -35 0
-27 -36 0
-28 -29 0
-28 -30 0
-28 -31 0
-28 -32 0
-28 -33 0
-28 -34 0
-28 -35 0
-28 -36 0
-29 -30 0
-29 -31 0
-29 -32 0
-29 -33 0
-29 -34 0
-29 -35 0
-29 -36 0
-30 -31 0
-30 -32 0
-30 -33 0
-30 -34 0
-30 -35 0
-30 -36 0
-31 -32 0
-31 -33 0
-31 -34 0
-31 -35 0
-31 -36 0
-32 -33 0
-32 -34 0
-32 -35 0
-32 -36 0
-33 -34 0
-33 -35 0
-33 -36 0
-34 -35 0
-34 -36 0
-35 -36 0
-208 187 0
-209 188 25 0
-210 189 26 0
-211 190 27 0
-212 191 28 0
-213 192 29 0
-214 193 30 0
-215 194 31 0
-216 195 32 0
-217 196 33 0
-218 197 34 0
-219 198 0
-220 199 35 0
-221 200 36 0
-222 201 0
-223 202 0
-224 203 0
-225 204 0
-226 205 0
-227 206 0
-228 207 0
-37 -38 0
-37 -39 0
-37 -40 0
-37 -41 0
-37 -42 0
-37 -43 0
-37 -44 0
-37 -45 0
-37 -46 0
-37 -47 0
-37 -48 0
-38 -39 0
-38 -40 0
-38 -41 0
-38 -42 0
-38 -43 0
-38 -44 0
-38 -45 0
-38 -46 0
-38 -47 0
-38 -48 0
-39 -40 0
-39 -41 0
-39 -42 0
-39 -43 0
-39 -44 0
-39 -45 0
-39 -46 0
-39 -47 0
-39 -48 0
-40 -41 0
-40 -42 0
-40 -43 0
-40 -44 0
-40 -45 0
-40 -46 0
-40 -47 0
-40 -48 0
-41 -42 0
-41 -43 0
-41 -44 0
-41 -45 0
-41 -46 0
-41 -47 0
-41 -48 0
-42 -43 0
-42 -44 0
-42 -45 0
-42 -46 0
-42 -47 0
-42 -48 0
-43 -44 0
-43 -45 0
-43 -46 0
-43 -47 0
-43 -48 0
-44 -45 0
-44 -46 0
-44 -47 0
-44 -48 0
-45 -46 0
-45 -47 0
-45 -48 0
-46 -47 0
-46 -48 0
-47 -48 0
-229 208 0
-230 209 37 0
-231 210 38 0
-232 211 39 0
-233 212 40 0
-234 213 41 0
-235 214 42 0
-236 215 43 0
-237 216 44 0
-238 217 45 0
-239 218 46 0
-240 219 0
-241 220 47 0
-242 221 48 0
-243 222 0
-244 223 0
-245 224 0
-246 225 0
-247 226 0
-248 227 0
-249 228 0
-49 -50 0
-49 -51 0
-49 -52 0
-49 -53 0
-49 -54 0
-49 -55 0
-49 -56 0
-49 -57 0
-49 -58 0
-49 -59 0
-49 -60 0
-50 -51 0
-50 -52 0
-50 -53 0
-50 -54 0
-50 -55 0
-50 -56 0
-50 -57 0
-50 -58 0
-50 -59 0
-50 -60 0
-51 -52 0
-51 -53 0
-51 -54 0
-51 -55 0
-51 -56 0
-51 -57 0
-51 -58 0
-51 -59 0
-51 -60 0
-52 -53 0
-52 -54 0
-52 -55 0
-52 -56 0
-52 -57 0
-52 -58 0
-52 -59 0
-52 -60 0
-53 -54 0
-53 -55 0
-53 -56 0
-53 -57 0
-53 -58 0
-53 -59 0
-53 -60 0
-54 -55 0
-54 -56 0
-54 -57 0
-54 -58 0
-54 -59 0
-54 -60 0
-55 -56 0
-55 -57 0
-55 -58 0
-55 -59 0
-55 -60 0
-56 -57 0
-56 -58 0
-56 -59 0
-56 -60 0
-57 -58 0
-57 -59 0
-57 -60 0
-58 -59 0
-58 -60 0
-59 -60 0
-250 229 0
-251 230 49 0
-252 231 50 0
-253 232 51 0
-254 233 52 0
-255 234 53 0
-256 235 54 0
-257 236 55 0
-258 237 56 0
-259 238 57 0
-260 239 58 0
-261 240 0
-262 241 59 0
-263 242 60 0
-264 243 0
-265 244 0
-266 245 0
-267 246 0
-268 247 0
-269 248 0
-270 249 0
-61 -62 0
-61 -63 0
-61 -64 0
-61 -65 0
-61 -66 0
-61 -67 0
-61 -68 0
-61 -69 0
-61 -70 0
-61 -71 0
-61 -72 0
-62 -63 0
-62 -64 0
-62 -65 0
-62 -66 0
-62 -67 0
-62 -68 0
-62 -69 0
-62 -70 0
-62 -71 0
-62 -72 0
-63 -64 0
-63 -65 0
-63 -66 0
-63 -67 0
-63 -68 0
-63 -69 0
-63 -70 0
-63 -71 0
-63 -72 0
-64 -65 0
-64 -66 0
-64 -67 0
-64 -68 0
-64 -69 0
-64 -70 0
-64 -71 0
-64 -72 0
-65 -66 0
-65 -67 0
-65 -68 0
-65 -69 0
-65 -70 0
-65 -71 0
-65 -72 0
-66 -67 0
-66 -68 0
-66 -69 0
-66 -70 0
-66 -71 0
-66 -72 0
-67 -68 0
-67 -69 0
-67 -70 0
-67 -71 0
-67 -72 0
-68 -69 0
-68 -70 0
-68 -71 0
-68 -72 0
-69 -70 0
-69 -71 0
-69 -72 0
-70 -71 0
-70 -72 0
-71 -72 0
-271 250 0
-272 251 61 0
-273 252 62 0
-274 253 63 0
-275 254 64 0
-276 255 65 0
-277 256 66 0
-278 257 67 0
-279 258 68 0
-280 259 69 0
-281 260 70 0
-282 261 0
-283 262 71 0
-284 263 72 0
-285 264 0
-286 265 0
-287 266 0
-288 267 0
-289 268 0
-290 269 0
-291 270 0
-73 -74 0
-73 -75 0
-73 -76 0
-73 -77 0
-73 -78 0
-73 -79 0
-73 -80 0
-73 -81 0
-73 -82 0
-73 -83 0
-73 -84 0
-74 -75 0
-74 -76 0
-74 -77 0
-74 -78 0
-74 -79 0
-74 -80 0
-74 -81 0
-74 -82 0
-74 -83 0
-74 -84 0
-75 -76 0
-75 -77 0
-75 -78 0
-75 -79 0
-75 -80 0
-75 -81 0
-75 -82 0
-75 -83 0
-75 -84 0
-76 -77 0
-76 -78 0
-76 -79 0
-76 -80 0
-76 -81 0
-76 -82 0
-76 -83 0
-76 -84 0
-77 -78 0
-77 -79 0
-77 -80 0
-77 -81 0
-77 -82 0
-77 -83 0
-77 -84 0
-78 -79 0
-78 -80 0
-78 -81 0
-78 -82 0
-78 -83 0
-78 -84 0
-79 -80 0
-79 -81 0
-79 -82 0
-79 -83 0
-79 -84 0
-80 -81 0
-80 -82 0
-80 -83 0
-80 -84 0
-81 -82 0
-81 -83 0
-81 -84 0
-82 -83 0
-82 -84 0
-83 -84 0
-292 271 0
-293 272 73 0
-294 273 74 0
-295 274 75 0
-296 275 76 0
-297 276 77 0
-298 277 78 0
-299 278 79 0
-300 279 80 0
-301 280 81 0
-302 281 82 0
-303 282 0
-304 283 83 0
-305 284 84 0
-306 285 0
-307 286 0
-308 287 0
-309 288 0
-310 289 0
-311 290 0
-312 291 0
-85 -86 0
-85 -87 0
-85 -88 0
-85 -89 0
-85 -90 0
-85 -91 0
-85 -92 0
-85 -93 0
-85 -94 0
-85 -95 0
-85 -96 0
-86 -87 0
-86 -88 0
-86 -89 0
-86 -90 0
-86 -91 0
-86 -92 0
-86 -93 0
-86 -94 0
-86 -95 0
-86 -96 0
-87 -88 0
-87 -89 0
-87 -90 0
-87 -91 0
-87 -92 0
-87 -93 0
-87 -94 0
-87 -95 0
-87 -96 0
-88 -89 0
-88 -90 0
-88 -91 0
-88 -92 0
-88 -93 0
-88 -94 0
-88 -95 0
-88 -96 0
-89 -90 0
-89 -91 0
-89 -92 0
-89 -93 0
-89 -94 0
-89 -95 0
-89 -96 0
-90 -91 0
-90 -92 0
-90 -93 0
-90 -94 0
-90 -95 0
-90 -96 0
-91 -92 0
-91 -93 0
-91 -94 0
-91 -95 0
-91 -96 0
-92 -93 0
-92 -94 0
-92 -95 0
-92 -96 0
-93 -94 0
-93 -95 0
-93 -96 0
-94 -95 0
-94 -96 0
-95 -96 0
-313 292 0
-314 293 85 0
-315 294 86 0
-316 295 87 0
-317 296 88 0
-318 297 89 0
-319 298 90 0
-320 299 91 0
-321 300 92 0
-322 301 93 0
-323 302 94 0
-324 303 0
-325 304 95 0
-326 305 96 0
-327 306 0
-328 307 0
-329 308 0
-330 309 0
-331 310 0
-332 311 0
-333 312 0
-97 -98 0
-97 -99 0
-97 -100 0
-97 -101 0
-97 -102 0
-97 -103 0
-97 -104 0
-97 -105 0
-97 -106 0
-97 -107 0
-97 -108 0
-98 -99 0
-98 -100 0
-98 -101 0
-98 -102 0
-98 -103 0
-98 -104 0
-98 -105 0
-98 -106 0
-98 -107 0
-98 -108 0
-99 -100 0
-99 -101 0
-99 -102 0
-99 -103 0
-99 -104 0
-99 -105 0
-99 -106 0
-99 -107 0
-99 -108 0
-100 -101 0
-100 -102 0
-100 -103 0
-100 -104 0
-100 -105 0
-100 -106 0
-100 -107 0
-100 -108 0
-101 -102 0
-101 -103 0
-101 -104 0
-101 -105 0
-101 -106 0
-101 -107 0
-101 -108 0
-102 -103 0
-102 -104 0
-102 -105 0
-102 -106 0
-102 -107 0
-102 -108 0
-103 -104 0
-103 -105 0
-103 -106 0
-103 -107 0
-103 -108 0
-104 -105 0
-104 -106 0
-104 -107 0
-104 -108 0
-105 -106 0
-105 -107 0
-105 -108 0
-106 -107 0
-106 -108 0
-107 -108 0
-334 313 0
-335 314 97 0
-336 315 98 0
-337 316 99 0
-338 317 100 0
-339 318 101 0
-340 319 102 0
-341 320 103 0
-342 321 104 0
-343 322 105 0
-344 323 106 0
-345 324 0
-346 325 107 0
-347 326 108 0
-348 327 0
-349 328 0
-350 329 0
-351 330 0
-352 331 0
-353 332 0
-354 333 0
-109 -110 0
-109 -111 0
-109 -112 0
-109 -113 0
-109 -114 0
-109 -115 0
-109 -116 0
-109 -117 0
-109 -118 0
-109 -119 0
-109 -120 0
-110 -111 0
-110 -112 0
-110 -113 0
-110 -114 0
-110 -115 0
-110 -116 0
-110 -117 0
-110 -118 0
-110 -119 0
-110 -120 0
-111 -112 0
-111 -113 0
-111 -114 0
-111 -115 0
-111 -116 0
-111 -117 0
-111 -118 0
-111 -119 0
-111 -120 0
-112 -113 0
-112 -114 0
-112 -115 0
-112 -116 0
-112 -117 0
-112 -118 0
-112 -119 0
-112 -120 0
-113 -114 0
-113 -115 0
-113 -116 0
-113 -117 0
-113 -118 0
-113 -119 0
-113 -120 0
-114 -115 0
-114 -116 0
-114 -117 0
-114 -118 0
-114 -119 0
-114 -120 0
-115 -116 0
-115 -117 0
-115 -118 0
-115 -119 0
-115 -120 0
-116 -117 0
-116 -118 0
-116 -119 0
-116 -120 0
-117 -118 0
-117 -119 0
-117 -120 0
-118 -119 0
-118 -120 0
-119 -120 0
-355 334 0
-356 335 109 0
-357 336 110 0
-358 337 111 0
-359 338 112 0
-360 339 113 0
-361 340 114 0
-362 341 115 0
-363 342 116 0
-364 343 117 0
-365 344 118 0
-366 345 0
-367 346 119 0
-368 347 120 0
-369 348 0
-370 349 0
-371 350 0
-372 351 0
-373 352 0
-374 353 0
-375 354 0
-121 -122 0
-121 -123 0
-121 -124 0
-121 -125 0
-121 -126 0
-121 -127 0
-121 -128 0
-121 -129 0
-121 -130 0
-121 -131 0
-121 -132 0
-122 -123 0
-122 -124 0
-122 -125 0
-122 -126 0
-122 -127 0
-122 -128 0
-122 -129 0
-122 -130 0
-122 -131 0
-122 -132 0
-123 -124 0
-123 -125 0
-123 -126 0
-123 -127 0
-123 -128 0
-123 -129 0
-123 -130 0
-123 -131 0
-123 -132 0
-124 -125 0
-124 -126 0
-124 -127 0
-124 -128 0
-124 -129 0
-124 -130 0
-124 -131 0
-124 -132 0
-125 -126 0
-125 -127 0
-125 -128 0
-125 -129 0
-125 -130 0
-125 -131 0
-125 -132 0
-126 -127 0
-126 -128 0
-126 -129 0
-126 -130 0
-126 -131 0
-126 -132 0
-127 -128 0
-127 -129 0
-127 -130 0
-127 -131 0
-127 -132 0
-128 -129 0
-128 -130 0
-128 -131 0
-128 -132 0
-129 -130 0
-129 -131 0
-129 -132 0
-130 -131 0
-130 -132 0
-131 -132 0
-376 355 0
-377 356 121 0
-378 357 122 0
-379 358 123 0
-380 359 124 0
-381 360 125 0
-382 361 126 0
-383 362 127 0
-384 363 128 0
-385 364 129 0
-386 365 130 0
-387 366 0
-388 367 131 0
-389 368 132 0
-390 369 0
-391 370 0
-392 371 0
-393 372 0
-394 373 0
-395 374 0
-396 375 0
-133 -134 0
-133 -135 0
-133 -136 0
-133 -137 0
-133 -138 0
-133 -139 0
-133 -140 0
-133 -141 0
-133 -142 0
-133 -143 0
-133 -144 0
-134 -135 0
-134 -136 0
-134 -137 0
-134 -138 0
-134 -139 0
-134 -140 0
-134 -141 0
-134 -142 0
-134 -143 0
-134 -144 0
-135 -136 0
-135 -137 0
-135 -138 0
-135 -139 0
-135 -140 0
-135 -141 0
-135 -142 0
-135 -143 0
-135 -144 0
-136 -137 0
-136 -138 0
-136 -139 0
-136 -140 0
-136 -141 0
-136 -142 0
-136 -143 0
-136 -144 0
-137 -138 0
-137 -139 0
-137 -140 0
-137 -141 0
-137 -142 0
-137 -143 0
-137 -144 0
-138 -139 0
-138 -140 0
-138 -141 0
-138 -142 0
-138 -143 0
-138 -144 0
-139 -140 0
-139 -141 0
-139 -142 0
-139 -143 0
-139 -144 0
-140 -141 0
-140 -142 0
-140 -143 0
-140 -144 0
-141 -142 0
-141 -143 0
-141 -144 0
-142 -143 0
-142 -144 0
-143 -144 0
-397 376 0
-398 377 133 0
-399 378 134 0
-400 379 135 0
-401 380 136 0
-402 381 137 0
-403 382 138 0
-404 383 139 0
-405 384 140 0
-406 385 141 0
-407 386 142 0
-408 387 0
-409 388 143 0
-410 389 144 0
-411 390 0
-412 391 0
-413 392 0
-414 393 0
-415 394 0
-416 395 0
-417 396 0
145 0
-146 0
-147 0
-148 0
-149 0
-150 0
-151 0
-152 0
-153 0
-154 0
-155 0
156 0
-157 0
-158 0
159 0
160 0
161 0
162 0
163 0
164 0
165 0
1 13 25 37 49 61 73 85 97 109 121 133 0
2 14 26 38 50 62 74 86 98 110 122 134 0
3 15 27 39 51 63 75 87 99 111 123 135 0
4 16 28 40 52 64 76 88 100 112 124 136 0
5 17 29 41 53 65 77 89 101 113 125 137 0
6 18 30 42 54 66 78 90 102 114 126 138 0
7 19 31 43 55 67 79 91 103 115 127 139 0
8 20 32 44 56 68 80 92 104 116 128 140 0
9 21 33 45 57 69 81 93 105 117 129 141 0
10 22 34 46 58 70 82 94 106 118 130 142 0
11 23 35 47 59 71 83 95 107 119 131 143 0
12 24 36 48 60 72 84 96 108 120 132 144 0
-418 152 0
-418 159 0
-419 152 0
-419 159 0
-1 418 419 0
-420 145 0
-420 155 0
-421 145 0
-421 155 0
-422 154 0
-422 159 0
-423 154 0
-423 159 0
-2 420 421 422 423 0
-424 149 0
-424 165 0
-425 149 0
-425 165 0
-426 150 0
-426 163 0
-427 150 0
-427 163 0
-3 424 425 426 427 0
-428 148 0
-428 165 0
-429 148 0
-429 165 0
-4 428 429 0
-430 148 0
-430 163 0
-431 148 0
-431 163 0
-5 430 431 0
-432 152 0
-432 164 0
-433 152 0
-433 164 0
-434 154 0
-434 161 0
-435 154 0
-435 161 0
-6 432 433 434 435 0
-436 146 0
-436 159 0
-437 146 0
-437 159 0
-438 151 0
-438 164 0
-439 151 0
-439 164 0
-440 153 0
-440 165 0
-441 153 0
-441 165 0
-7 436 437 438 439 440 441 0
-442 152 0
-442 165 0
-443 152 0
-443 165 0
-8 442 443 0
-444 147 0
-444 159 0
-445 147 0
-445 159 0
-446 151 0
-446 161 0
-447 151 0
-447 161 0
-9 444 445 446 447 0
-448 145 0
-448 147 0
-449 145 0
-449 147 0
-450 156 0
-450 161 0
-451 156 0
-451 161 0
-10 448 449 450 451 0
-452 158 0
-452 165 0
-453 158 0
-453 165 0
-454 159 0
-454 162 0
-455 159 0
-455 162 0
-11 452 453 454 455 0
-456 157 0
-456 165 0
-457 157 0
-457 165 0
-12 456 457 0
-458 173 0
-458 180 0
-459 173 0
-459 180 0
-13 458 459 0
-460 166 0
-460 176 0
-461 166 0
-461 176 0
-462 175 0
-462 180 0
-463 175 0
-463 180 0
-14 460 461 462 463 0
-464 170 0
-464 186 0
-465 170 0
-465 186 0
-466 171 0
-466 184 0
-467 171 0
-467 184 0
-15 464 465 466 467 0
-468 169 0
-468 186 0
-469 169 0
-469 186 0
-16 468 469 0
-470 169 0
-470 184 0
-471 169 0
-471 184 0
-17 470 471 0
-472 173 0
-472 185 0
-473 173 0
-473 185 0
-474 175 0
-474 182 0
-475 175 0
-475 182 0
-18 472 473 474 475 0
-476 167 0
-476 180 0
-477 167 0
-477 180 0
-478 172 0
-478 185 0
-479 172 0
-479 185 0
-480 174 0
-480 186 0
-481 174 0
-481 186 0
-19 476 477 478 479 480 481 0
-482 173 0
-482 186 0
-483 173 0
-483 186 0
-20 482 483 0
-484 168 0
-484 180 0
-485 168 0
-485 180 0
-486 172 0
-486 182 0
-487 172 0
-487 182 0
-21 484 485 486 487 0
-488 166 0
-488 168 0
-489 166 0
-489 168 0
-490 177 0
-490 182 0
-491 177 0
-491 182 0
-22 488 489 490 491 0
-492 179 0
-492 186 0
-493 179 0
-493 186 0
-494 180 0
-494 183 0
-495 180 0
-495 183 0
-23 492 493 494 495 0
-496 178 0
-496 186 0
-497 178 0
-497 186 0
-24 496 497 0
-498 194 0
-498 201 0
-499 194 0
-499 201 0
-25 498 499 0
-500 187 0
-500 197 0
-501 187 0
-501 197 0
-502 196 0
-502 201 0
-503 196 0
-503 201 0
-26 500 501 502 503 0
-504 191 0
-504 207 0
-505 191 0
-505 207 0
-506 192 0
-506 205 0
-507 192 0
-507 205 0
-27 504 505 506 507 0
-508 190 0
-508 207 0
-509 190 0
-509 207 0
-28 508 509 0
-510 190 0
-510 205 0
-511 190 0
-511 205 0
-29 510 511 0
-512 194 0
-512 206 0
-513 194 0
-513 206 0
-514 196 0
-514 203 0
-515 196 0
-515 203 0
-30 512 513 514 515 0
-516 188 0
-516 201 0
-517 188 0
-517 201 0
-518 193 0
-518 206 0
-519 193 0
-519 206 0
-520 195 0
-520 207 0
-521 195 0
-521 207 0
-31 516 517 518 519 520 521 0
-522 194 0
-522 207 0
-523 194 0
-523 207 0
-32 522 523 0
-524 189 0
-524 201 0
-525 189 0
-525 201 0
-526 193 0
-526 203 0
-527 193 0
-527 203 0
-33 524 525 526 527 0
-528 187 0
-528 189 0
-529 187 0
-529 189 0
-530 198 0
-530 203 0
-531 198 0
-531 203 0
-34 528 529 530 531 0
-532 200 0
-532 207 0
-533 200 0
-533 207 0
-534 201 0
-534 204 0
-535 201 0
-535 204 0
-35 532 533 534 535 0
-536 199 0
-536 207 0
-537 199 0
-537 207 0
-36 536 537 0
-538 215 0
-538 222 0
-539 215 0
-539 222 0
-37 538 539 0
-540 208 0
-540 218 0
-541 208 0
-541 218 0
-542 217 0
-542 222 0
-543 217 0
-543 222 0
-38 540 541 542 543 0
-544 212 0
-544 228 0
-545 212 0
-545 228 0
-546 213 0
-546 226 0
-547 213 0
-547 226 0
-39 544 545 546 547 0
-548 211 0
-548 228 0
-549 211 0
-549 228 0
-40 548 549 0
-550 211 0
-550 226 0
-551 211 0
-551 226 0
-41 550 551 0
-552 215 0
-552 227 0
-553 215 0
-553 227 0
-554 217 0
-554 224 0
-555 217 0
-555 224 0
-42 552 553 554 555 0
-556 209 0
-556 222 0
-557 209 0
-557 222 0
-558 214 0
-558 227 0
-559 214 0
-559 227 0
-560 216 0
-560 228 0
-561 216 0
-561 228 0
-43 556 557 558 559 560 561 0
-562 215 0
-562 228 0
-563 215 0
-563 228 0
-44 562 563 0
-564 210 0
-564 222 0
-565 210 0
-565 222 0
-566 214 0
-566 224 0
-567 214 0
-567 224 0
-45 564 565 566 567 0
-568 208 0
-568 210 0
-569 208 0
-569 210 0
-570 219 0
-570 224 0
-571 219 0
-571 224 0
-46 568 569 570 571 0
-572 221 0
-572 228 0
-573 221 0
-573 228 0
-574 222 0
-574 225 0
-575 222 0
-575 225 0
-47 572 573 574 575 0
-576 220 0
-576 228 0
-577 220 0
-577 228 0
-48 576 577 0
-578 236 0
-578 243 0
-579 236 0
-579 243 0
-49 578 579 0
-580 229 0
-580 239 0
-581 229 0
-581 239 0
-582 238 0
-582 243 0
-583 238 0
-583 243 0
-50 580 581 582 583 0
-584 233 0
-584 249 0
-585 233 0
-585 249 0
-586 234 0
-586 247 0
-587 234 0
-587 247 0
-51 584 585 586 587 0
-588 232 0
-588 249 0
-589 232 0
-589 249 0
-52 588 589 0
-590 232 0
-590 247 0
-591 232 0
-591 247 0
-53 590 591 0
-592 236 0
-592 248 0
-593 236 0
-593 248 0
-594 238 0
-594 245 0
-595 238 0
-595 245 0
-54 592 593 594 595 0
-596 230 0
-596 243 0
-597 230 0
-597 243 0
-598 235 0
-598 248 0
-599 235 0
-599 248 0
-600 237 0
-600 249 0
-601 237 0
-601 249 0
-55 596 597 598 599 600 601 0
-602 236 0
-602 249 0
-603 236 0
-603 249 0
-56 602 603 0
-604 231 0
-604 243 0
-605 231 0
-605 243 0
-606 235 0
-606 245 0
-607 235 0
-607 245 0
-57 604 605 606 607 0
-608 229 0
-608 231 0
-609 229 0
-609 231 0
-610 240 0
-610 245 0
-611 240 0
-611 245 0
-58 608 609 610 611 0
-612 242 0
-612 249 0
-613 242 0
-613 249 0
-614 243 0
-614 246 0
-615 243 0
-615 246 0
-59 612 613 614 615 0
-616 241 0
-616 249 0
-617 241 0
-617 249 0
-60 616 617 0
-618 257 0
-618 264 0
-619 257 0
-619 264 0
-61 618 619 0
-620 250 0
-620 260 0
-621 250 0
-621 260 0
-622 259 0
-622 264 0
-623 259 0
-623 264 0
-62 620 621 622 623 0
-624 254 0
-624 270 0
-625 254 0
-625 270 0
-626 255 0
-626 268 0
-627 255 0
-627 268 0
-63 624 625 626 627 0
-628 253 0
-628 270 0
-629 253 0
-629 270 0
-64 628 629 0
-630 253 0
-630 268 0
-631 253 0
-631 268 0
-65 630 631 0
-632 257 0
-632 269 0
-633 257 0
-633 269 0
-634 259 0
-634 266 0
-635 259 0
-635 266 0
-66 632 633 634 635 0
-636 251 0
-636 264 0
-637 251 0
-637 264 0
-638 256 0
-638 269 0
-639 256 0
-639 269 0
-640 258 0
-640 270 0
-641 258 0
-641 270 0
-67 636 637 638 639 640 641 0
-642 257 0
-642 270 0
-643 257 0
-643 270 0
-68 642 643 0
-644 252 0
-644 264 0
-645 252 0
-645 264 0
-646 256 0
-646 266 0
-647 256 0
-647 266 0
-69 644 645 646 647 0
-648 250 0
-648 252 0
-649 250 0
-649 252 0
-650 261 0
-650 266 0
-651 261 0
-651 266 0
-70 648 649 650 651 0
-652 263 0
-652 270 0
-653 263 0
-653 270 0
-654 264 0
-654 267 0
-655 264 0
-655 267 0
-71 652 653 654 655 0
-656 262 0
-656 270 0
-657 262 0
-657 270 0
-72 656 657 0
-658 278 0
-658 285 0
-659 278 0
-659 285 0
-73 658 659 0
-660 271 0
-660 281 0
-661 271 0
-661 281 0
-662 280 0
-662 285 0
-663 280 0
-663 285 0
-74 660 661 662 663 0
-664 275 0
-664 291 0
-665 275 0
-665 291 0
-666 276 0
-666 289 0
-667 276 0
-667 289 0
-75 664 665 666 667 0
-668 274 0
-668 291 0
-669 274 0
-669 291 0
-76 668 669 0
-670 274 0
-670 289 0
-671 274 0
-671 289 0
-77 670 671 0
-672 278 0
-672 290 0
-673 278 0
-673 290 0
-674 280 0
-674 287 0
-675 280 0
-675 287 0
-78 672 673 674 675 0
-676 272 0
-676 285 0
-677 272 0
-677 285 0
-678 277 0
-678 290 0
-679 277 0
-679 290 0
-680 279 0
-680 291 0
-681 279 0
-681 291 0
-79 676 677 678 679 680 681 0
-682 278 0
-682 291 0
-683 278 0
-683 291 0
-80 682 683 0
-684 273 0
-684 285 0
-685 273 0
-685 285 0
-686 277 0
-686 287 0
-687 277 0
-687 287 0
-81 684 685 686 687 0
-688 271 0
-688 273 0
-689 271 0
-689 273 0
-690 282 0
-690 287 0
-691 282 0
-691 287 0
-82 688 689 690 691 0
-692 284 0
-692 291 0
-693 284 0
-693 291 0
-694 285 0
-694 288 0
-695 285 0
-695 288 0
-83 692 693 694 695 0
-696 283 0
-696 291 0
-697 283 0
-697 291 0
-84 696 697 0
-698 299 0
-698 306 0
-699 299 0
-699 306 0
-85 698 699 0
-700 292 0
-700 302 0
-701 292 0
-701 302 0
-702 301 0
-702 306 0
-703 301 0
-703 306 0
-86 700 701 702 703 0
-704 296 0
-704 312 0
-705 296 0
-705 312 0
-706 297 0
-706 310 0
-707 297 0
-707 310 0
-87 704 705 706 707 0
-708 295 0
-708 312 0
-709 295 0
-709 312 0
-88 708 709 0
-710 295 0
-710 310 0
-711 295 0
-711 310 0
-89 710 711 0
-712 299 0
-712 311 0
-713 299 0
-713 311 0
-714 301 0
-714 308 0
-715 301 0
-715 308 0
-90 712 713 714 715 0
-716 293 0
-716 306 0
-717 293 0
-717 306 0
-718 298 0
-718 311 0
-719 298 0
-719 311 0
-720 300 0
-720 312 0
-721 300 0
-721 312 0
-91 716 717 718 719 720 721 0
-722 299 0
-722 312 0
-723 299 0
-723 312 0
-92 722 723 0
-724 294 0
-724 306 0
-725 294 0
-725 306 0
-726 298 0
-726 308 0
-727 298 0
-727 308 0
-93 724 725 726 727 0
-728 292 0
-728 294 0
-729 292 0
-729 294 0
-730 303 0
-730 308 0
-731 303 0
-731 308 0
-94 728 729 730 731 0
-732 305 0
-732 312 0
-733 305 0
-733 312 0
-734 306 0
-734 309 0
-735 306 0
-735 309 0
-95 732 733 734 735 0
-736 304 0
-736 312 0
-737 304 0
-737 312 0
-96 736 737 0
-738 320 0
-738 327 0
-739 320 0
-739 327 0
-97 738 739 0
-740 313 0
-740 323 0
-741 313 0
-741 323 0
-742 322 0
-742 327 0
-743 322 0
-743 327 0
-98 740 741 742 743 0
-744 317 0
-744 333 0
-745 317 0
-745 333 0
-746 318 0
-746 331 0
-747 318 0
-747 331 0
-99 744 745 746 747 0
-748 316 0
-748 333 0
-749 316 0
-749 333 0
-100 748 749 0
-750 316 0
-750 331 0
-751 316 0
-751 331 0
-101 750 751 0
-752 320 0
-752 332 0
-753 320 0
-753 332 0
-754 322 0
-754 329 0
-755 322 0
-755 329 0
-102 752 753 754 755 0
-756 314 0
-756 327 0
-757 314 0
-757 327 0
-758 319 0
-758 332 0
-759 319 0
-759 332 0
-760 321 0
-760 333 0
-761 321 0
-761 333 0
-103 756 757 758 759 760 761 0
-762 320 0
-762 333 0
-763 320 0
-763 333 0
-104 762 763 0
-764 315 0
-764 327 0
-765 315 0
-765 327 0
-766 319 0
-766 329 0
-767 319 0
-767 329 0
-105 764 765 766 767 0
-768 313 0
-768 315 0
-769 313 0
-769 315 0
-770 324 0
-770 329 0
-771 324 0
-771 329 0
-106 768 769 770 771 0
-772 326 0
-772 333 0
-773 326 0
-773 333 0
-774 327 0
-774 330 0
-775 327 0
-775 330 0
-107 772 773 774 775 0
-776 325 0
-776 333 0
-777 325 0
-777 333 0
-108 776 777 0
-778 341 0
-778 348 0
-779 341 0
-779 348 0
-109 778 779 0
-780 334 0
-780 344 0
-781 334 0
-781 344 0
-782 343 0
-782 348 0
-783 343 0
-783 348 0
-110 780 781 782 783 0
-784 338 0
-784 354 0
-785 338 0
-785 354 0
-786 339 0
-786 352 0
-787 339 0
-787 352 0
-111 784 785 786 787 0
-788 337 0
-788 354 0
-789 337 0
-789 354 0
-112 788 789 0
-790 337 0
-790 352 0
-791 337 0
-791 352 0
-113 790 791 0
-792 341 0
-792 353 0
-793 341 0
-793 353 0
-794 343 0
-794 350 0
-795 343 0
-795 350 0
-114 792 793 794 795 0
-796 335 0
-796 348 0
-797 335 0
-797 348 0
-798 340 0
-798 353 0
-799 340 0
-799 353 0
-800 342 0
-800 354 0
-801 342 0
-801 354 0
-115 796 797 798 799 800 801 0
-802 341 0
-802 354 0
-803 341 0
-803 354 0
-116 802 803 0
-804 336 0
-804 348 0
-805 336 0
-805 348 0
-806 340 0
-806 350 0
-807 340 0
-807 350 0
-117 804 805 806 807 0
-808 334 0
-808 336 0
-809 334 0
-809 336 0
-810 345 0
-810 350 0
-811 345 0
-811 350 0
-118 808 809 810 811 0
-812 347 0
-812 354 0
-813 347 0
-813 354 0
-814 348 0
-814 351 0
-815 348 0
-815 351 0
-119 812 813 814 815 0
-816 346 0
-816 354 0
-817 346 0
-817 354 0
-120 816 817 0
-818 362 0
-818 369 0
-819 362 0
-819 369 0
-121 818 819 0
-820 355 0
-820 365 0
-821 355 0
-821 365 0
-822 364 0
-822 369 0
-823 364 0
-823 369 0
-122 820 821 822 823 0
-824 359 0
-824 375 0
-825 359 0
-825 375 0
-826 360 0
-826 373 0
-827 360 0
-827 373 0
-123 824 825 826 827 0
-828 358 0
-828 375 0
-829 358 0
-829 375 0
-124 828 829 0
-830 358 0
-830 373 0
-831 358 0
-831 373 0
-125 830 831 0
-832 362 0
-832 374 0
-833 362 0
-833 374 0
-834 364 0
-834 371 0
-835 364 0
-835 371 0
-126 832 833 834 835 0
-836 356 0
-836 369 0
-837 356 0
-837 369 0
-838 361 0
-838 374 0
-839 361 0
-839 374 0
-840 363 0
-840 375 0
-841 363 0
-841 375 0
-127 836 837 838 839 840 841 0
-842 362 0
-842 375 0
-843 362 0
-843 375 0
-128 842 843 0
-844 357 0
-844 369 0
-845 357 0
-845 369 0
-846 361 0
-846 371 0
-847 361 0
-847 371 0
-129 844 845 846 847 0
-848 355 0
-848 357 0
-849 355 0
-849 357 0
-850 366 0
-850 371 0
-851 366 0
-851 371 0
-130 848 849 850 851 0
-852 368 0
-852 375 0
-853 368 0
-853 375 0
-854 369 0
-854 372 0
-855 369 0
-855 372 0
-131 852 853 854 855 0
-856 367 0
-856 375 0
-857 367 0
-857 375 0
-132 856 857 0
-858 383 0
-858 390 0
-859 383 0
-859 390 0
-133 858 859 0
-860 376 0
-860 386 0
-861 376 0
-861 386 0
-862 385 0
-862 390 0
-863 385 0
-863 390 0
-134 860 861 862 863 0
-864 380 0
-864 396 0
-865 380 0
-865 396 0
-866 381 0
-866 394 0
-867 381 0
-867 394 0
-135 864 865 866 867 0
-868 379 0
-868 396 0
-869 379 0
-869 396 0
-136 868 869 0
-870 379 0
-870 394 0
-871 379 0
-871 394 0
-137 870 871 0
-872 383 0
-872 395 0
-873 383 0
-873 395 0
-874 385 0
-874 392 0
-875 385 0
-875 392 0
-138 872 873 874 875 0
-876 377 0
-876 390 0
-877 377 0
-877 390 0
-878 382 0
-878 395 0
-879 382 0
-879 395 0
-880 384 0
-880 396 0
-881 384 0
-881 396 0
-139 876 877 878 879 880 881 0
-882 383 0
-882 396 0
-883 383 0
-883 396 0
-140 882 883 0
-884 378 0
-884 390 0
-885 378 0
-885 390 0
-886 382 0
-886 392 0
-887 382 0
-887 392 0
-141 884 885 886 887 0
-888 376 0
-888 378 0
-889 376 0
-889 378 0
-890 387 0
-890 392 0
-891 387 0
-891 392 0
-142 888 889 890 891 0
-892 389 0
-892 396 0
-893 389 0
-893 396 0
-894 390 0
-894 393 0
-895 390 0
-895 393 0
-143 892 893 894 895 0
-896 388 0
-896 396 0
-897 388 0
-897 396 0
-144 896 897 0
