p cnf 849 2085
-1 -2 0
-1 -3 0
-1 -4 0
-1 -5 0
-1 -6 0
-1 -7 0
-1 -8 0
-1 -9 0
-1 -10 0
-1 -11 0
-1 -12 0
-2 -3 0
-2 -4 0
-2 -5 0
-2 -6 0
-2 -7 0
-2 -8 0
-2 -9 0
-2 -10 0
-2 -11 0
-2 -12 0
-3 -4 0
-3 -5 0
-3 -6 0
-3 -7 0
-3 -8 0
-3 -9 0
-3 -10 0
-3 -11 0
-3 -12 0
-4 -5 0
-4 -6 0
-4 -7 0
-4 -8 0
-4 -9 0
-4 -10 0
-4 -11 0
-4 -12 0
-5 -6 0
-5 -7 0
-5 -8 0
-5 -9 0
-5 -10 0
-5 -11 0
-5 -12 0
-6 -7 0
-6 -8 0
-6 -9 0
-6 -10 0
-6 -11 0
-6 -12 0
-7 -8 0
-7 -9 0
-7 -10 0
-7 -11 0
-7 -12 0
-8 -9 0
-8 -10 0
-8 -11 0
-8 -12 0
-9 -10 0
-9 -11 0
-9 -12 0
-10 -11 0
-10 -12 0
-11 -12 0
-166 145 1 0
-167 146 0
-168 147 2 0
-169 148 3 0
-170 149 4 0
-171 150 5 0
-172 151 0
-173 152 6 0
-174 153 7 0
-175 154 0
-176 155 8 0
-177 156 0
-178 157 9 0
-179 158 10 0
-180 159 11 0
-181 160 12 0
-182 161 0
-183 162 0
-184 163 0
-185 164 0
-186 165 0
-13 -14 0
-13 -15 0
-13 -16 0
-13 -17 0
-13 -18 0
-13 -19 0
-13 -20 0
-13 -21 0
-13 -22 0
-13 -23 0
-13 -24 0
-14 -15 0
-14 -16 0
-14 -17 0
-14 -18 0
-14 -19 0
-14 -20 0
-14 -21 0
-14 -22 0
-14 -23 0
-14 -24 0
-15 -16 0
-15 -17 0
-15 -18 0
-15 -19 0
-15 -20 0
-15 -21 0
-15 -22 0
-15 -23 0
-15 -24 0
-16 -17 0
-16 -18 0
-16 -19 0
-16 -20 0
-16 -21 0
-16 -22 0
-16 -23 0
-16 -24 0
-17 -18 0
-17 -19 0
-17 -20 0
-17 -21 0
-17 -22 0
-17 -23 0
-17 -24 0
-18 -19 0
-18 -20 0
-18 -21 0
-18 -22 0
-18 -23 0
-18 -24 0
-19 -20 0
-19 -21 0
-19 -22 0
-19 -23 0
-19 -24 0
-20 -21 0
-20 -22 0
-20 -23 0
-20 -24 0
-21 -22 0
-21 -23 0
-21 -24 0
-22 -23 0
-22 -24 0
-23 -24 0
-187 166 13 0
-188 167 0
-189 168 14 0
-190 169 15 0
-191 170 16 0
-192 171 17 0
-193 172 0
-194 173 18 0
-195 174 19 0
-196 175 0
-197 176 20 0
-198 177 0
-199 178 21 0
-200 179 22 0
-201 180 23 0
-202 181 24 0
-203 182 0
-204 183 0
-205 184 0
-206 185 0
-207 186 0
-25 -26 0
-25 -27 0
-25 -28 0
-25 -29 0
-25 -30 0
-25 -31 0
-25 -32 0
-25 -33 0
-25 -34 0
-25 -35 0
-25 -36 0
-26 -27 0
-26 -28 0
-26 -29 0
-26 -30 0
-26 -31 0
-26 -32 0
-26 -33 0
-26 -34 0
-26 -35 0
-26 -36 0
-27 -28 0
-27 -29 0
-27 -30 0
-27 -31 0
-27 -32 0
-27 -33 0
-27 -34 0
-27 -35 0
-27 -36 0
-28 -29 0
-28 -30 0
-28 -31 0
-28 -32 0
-28 -33 0
-28 -34 0
-28 -35 0
-28 -36 0
-29 -30 0
-29 -31 0
-29 -32 0
-29 -33 0
-29 -34 0
-29 -35 0
-29 -36 0
-30 -31 0
-30 -32 0
-30 -33 0
-30 -34 0
-30 -35 0
-30 -36 0
-31 -32 0
-31 -33 0
-31 -34 0
-31 -35 0
-31 -36 0
-32 -33 0
-32 -34 0
-32 -35 0
-32 -36 0
-33 -34 0
-33 -35 0
-33 -36 0
-34 -35 0
-34 -36 0
-35 -36 0
-208 187 25 0
-209 188 0
-210 189 26 0
-211 190 27 0
-212 191 28 0
-213 192 29 0
-214 193 0
-215 194 30 0
-216 195 31 0
-217 196 0
-218 197 32 0
-219 198 0
-220 199 33 0
-221 200 34 0
-222 201 35 0
-223 202 36 0
-224 203 0
-225 204 0
-226 205 0
-227 206 0
-228 207 0
-37 -38 0
-37 -39 0
-37 -40 0
-37 -41 0
-37 -42 0
-37 -43 0
-37 -44 0
-37 -45 0
-37 -46 0
-37 -47 0
-37 -48 0
-38 -39 0
-38 -40 0
-38 -41 0
-38 -42 0
-38 -43 0
-38 -44 0
-38 -45 0
-38 -46 0
-38 -47 0
-38 -48 0
-39 -40 0
-39 -41 0
-39 -42 0
-39 -43 0
-39 -44 0
-39 -45 0
-39 -46 0
-39 -47 0
-39 -48 0
-40 -41 0
-40 -42 0
-40 -43 0
-40 -44 0
-40 -45 0
-40 -46 0
-40 -47 0
-40 -48 0
-41 -42 0
-41 -43 0
-41 -44 0
-41 -45 0
-41 -46 0
-41 -47 0
-41 -48 0
-42 -43 0
-42 -44 0
-42 -45 0
-42 -46 0
-42 -47 0
-42 -48 0
-43 -44 0
-43 -45 0
-43 -46 0
-43 -47 0
-43 -48 0
-44 -45 0
-44 -46 0
-44 -47 0
-44 -48 0
-45 -46 0
-45 -47 0
-45 -48 0
-46 -47 0
-46 -48 0
-47 -48 0
-229 208 37 0
-230 209 0
-231 210 38 0
-232 211 39 0
-233 212 40 0
-234 213 41 0
-235 214 0
-236 215 42 0
-237 216 43 0
-238 217 0
-239 218 44 0
-240 219 0
-241 220 45 0
-242 221 46 0
-243 222 47 0
-244 223 48 0
-245 224 0
-246 225 0
-247 226 0
-248 227 0
-249 228 0
-49 -50 0
-49 -51 0
-49 -52 0
-49 -53 0
-49 -54 0
-49 -55 0
-49 -56 0
-49 -57 0
-49 -58 0
-49 -59 0
-49 -60 0
-50 -51 0
-50 -52 0
-50 -53 0
-50 -54 0
-50 -55 0
-50 -56 0
-50 -57 0
-50 -58 0
-50 -59 0
-50 -60 0
-51 -52 0
-51 -53 0
-51 -54 0
-51 -55 0
-51 -56 0
-51 -57 0
-51 -58 0
-51 -59 0
-51 -60 0
-52 -53 0
-52 -54 0
-52 -55 0
-52 -56 0
-52 -57 0
-52 -58 0
-52 -59 0
-52 -60 0
-53 -54 0
-53 -55 0
-53 -56 0
-53 -57 0
-53 -58 0
-53 -59 0
-53 -60 0
-54 -55 0
-54 -56 0
-54 -57 0
-54 -58 0
-54 -59 0
-54 -60 0
-55 -56 0
-55 -57 0
-55 -58 0
-55 -59 0
-55 -60 0
-56 -57 0
-56 -58 0
-56 -59 0
-56 -60 0
-57 -58 0
-57 -59 0
-57 -60 0
-58 -59 0
-58 -60 0
-59 -60 0
-250 229 49 0
-251 230 0
-252 231 50 0
-253 232 51 0
-254 233 52 0
-255 234 53 0
-256 235 0
-257 236 54 0
-258 237 55 0
-259 238 0
-260 239 56 0
-261 240 0
-262 241 57 0
-263 242 58 0
-264 243 59 0
-265 244 60 0
-266 245 0
-267 246 0
-268 247 0
-269 248 0
-270 249 0
-61 -62 0
-61 -63 0
-61 -64 0
-61 -65 0
-61 -66 0
-61 -67 0
-61 -68 0
-61 -69 0
-61 -70 0
-61 -71 0
-61 -72 0
-62 -63 0
-62 -64 0
-62 -65 0
-62 -66 0
-62 -67 0
-62 -68 0
-62 -69 0
-62 -70 0
-62 -71 0
-62 -72 0
-63 -64 0
-63 -65 0
-63 -66 0
-63 -67 0
-63 -68 0
-63 -69 0
-63 -70 0
-63 -71 0
-63 -72 0
-64 -65 0
-64 -66 0
-64 -67 0
-64 -68 0
-64 -69 0
-64 -70 0
-64 -71 0
-64 -72 0
-65 -66 0
-65 -67 0
-65 -68 0
-65 -69 0
-65 -70 0
-65 -71 0
-65 -72 0
-66 -67 0
-66 -68 0
-66 -69 0
-66 -70 0
-66 -71 0
-66 -72 0
-67 -68 0
-67 -69 0
-67 -70 0
-67 -71 0
-67 -72 0
-68 -69 0
-68 -70 0
-68 -71 0
-68 -72 0
-69 -70 0
-69 -71 0
-69 -72 0
-70 -71 0
-70 -72 0
-71 -72 0
-271 250 61 0
-272 251 0
-273 252 62 0
-274 253 63 0
-275 254 64 0
-276 255 65 0
-277 256 0
-278 257 66 0
-279 258 67 0
-280 259 0
-281 260 68 0
-282 261 0
-283 262 69 0
-284 263 70 0
-285 264 71 0
-286 265 72 0
-287 266 0
-288 267 0
-289 268 0
-290 269 0
-291 270 0
-73 -74 0
-73 -75 0
-73 -76 0
-73 -77 0
-73 -78 0
-73 -79 0
-73 -80 0
-73 -81 0
-73 -82 0
-73 -83 0
-73 -84 0
-74 -75 0
-74 -76 0
-74 -77 0
-74 -78 0
-74 -79 0
-74 -80 0
-74 -81 0
-74 -82 0
-74 -83 0
-74 -84 0
-75 -76 0
-75 -77 0
-75 -78 0
-75 -79 0
-75 -80 0
-75 -81 0
-75 -82 0
-75 -83 0
-75 -84 0
-76 -77 0
-76 -78 0
-76 -79 0
-76 -80 0
-76 -81 0
-76 -82 0
-76 -83 0
-76 -84 0
-77 -78 0
-77 -79 0
-77 -80 0
-77 -81 0
-77 -82 0
-77 -83 0
-77 -84 0
-78 -79 0
-78 -80 0
-78 -81 0
-78 -82 0
-78 -83 0
-78 -84 0
-79 -80 0
-79 -81 0
-79 -82 0
-79 -83 0
-79 -84 0
-80 -81 0
-80 -82 0
-80 -83 0
-80 -84 0
-81 -82 0
-81 -83 0
-81 -84 0
-82 -83 0
-82 -84 0
-83 -84 0
-292 271 73 0
-293 272 0
-294 273 74 0
-295 274 75 0
-296 275 76 0
-297 276 77 0
-298 277 0
-299 278 78 0
-300 279 79 0
-301 280 0
-302 281 80 0
-303 282 0
-304 283 81 0
-305 284 82 0
-306 285 83 0
-307 286 84 0
-308 287 0
-309 288 0
-310 289 0
-311 290 0
-312 291 0
-85 -86 0
-85 -87 0
-85 -88 0
-85 -89 0
-85 -90 0
-85 -91 0
-85 -92 0
-85 -93 0
-85 -94 0
-85 -95 0
-85 -96 0
-86 -87 0
-86 -88 0
-86 -89 0
-86 -90 0
-86 -91 0
-86 -92 0
-86 -93 0
-86 -94 0
-86 -95 0
-86 -96 0
-87 -88 0
-87 -89 0
-87 -90 0
-87 -91 0
-87 -92 0
-87 -93 0
-87 -94 0
-87 -95 0
-87 -96 0
-88 -89 0
-88 -90 0
-88 -91 0
-88 -92 0
-88 -93 0
-88 -94 0
-88 -95 0
-88 -96 0
-89 -90 0
-89 -91 0
-89 -92 0
-89 -93 0
-89 -94 0
-89 -95 0
-89 -96 0
-90 -91 0
-90 -92 0
-90 -93 0
-90 -94 0
-90 -95 0
-90 -96 0
-91 -92 0
-91 -93 0
-91 -94 0
-91 -95 0
-91 -96 0
-92 -93 0
-92 -94 0
-92 -95 0
-92 -96 0
-93 -94 0
-93 -95 0
-93 -96 0
-94 -95 0
-94 -96 0
-95 -96 0
-313 292 85 0
-314 293 0
-315 294 86 0
-316 295 87 0
-317 296 88 0
-318 297 89 0
-319 298 0
-320 299 90 0
-321 300 91 0
-322 301 0
-323 302 92 0
-324 303 0
-325 304 93 0
-326 305 94 0
-327 306 95 0
-328 307 96 0
-329 308 0
-330 309 0
-331 310 0
-332 311 0
-333 312 0
-97 -98 0
-97 -99 0
-97 -100 0
-97 -101 0
-97 -102 0
-97 -103 0
-97 -104 0
-97 -105 0
-97 -106 0
-97 -107 0
-97 -108 0
-98 -99 0
-98 -100 0
-98 -101 0
-98 -102 0
-98 -103 0
-98 -104 0
-98 -105 0
-98 -106 0
-98 -107 0
-98 -108 0
-99 -100 0
-99 -101 0
-99 -102 0
-99 -103 0
-99 -104 0
-99 -105 0
-99 -106 0
-99 -107 0
-99 -108 0
-100 -101 0
-100 -102 0
-100 -103 0
-100 -104 0
-100 -105 0
-100 -106 0
-100 -107 0
-100 -108 0
-101 -102 0
-101 -103 0
-101 -104 0
-101 -105 0
-101 -106 0
-101 -107 0
-101 -108 0
-102 -103 0
-102 -104 0
-102 -105 0
-102 -106 0
-102 -107 0
-102 -108 0
-103 -104 0
-103 -105 0
-103 -106 0
-103 -107 0
-103 -108 0
-104 -105 0
-104 -106 0
-104 -107 0
-104 -108 0
-105 -106 0
-105 -107 0
-105 -108 0
-106 -107 0
-106 -108 0
-107 -108 0
-334 313 97 0
-335 314 0
-336 315 98 0
-337 316 99 0
-338 317 100 0
-339 318 101 0
-340 319 0
-341 320 102 0
-342 321 103 0
-343 322 0
-344 323 104 0
-345 324 0
-346 325 105 0
-347 326 106 0
-348 327 107 0
-349 328 108 0
-350 329 0
-351 330 0
-352 331 0
-353 332 0
-354 333 0
-109 -110 0
-109 -111 0
-109 -112 0
-109 -113 0
-109 -114 0
-109 -115 0
-109 -116 0
-109 -117 0
-109 -118 0
-109 -119 0
-109 -120 0
-110 -111 0
-110 -112 0
-110 -113 0
-110 -114 0
-110 -115 0
-110 -116 0
-110 -117 0
-110 -118 0
-110 -119 0
-110 -120 0
-111 -112 0
-111 -113 0
-111 -114 0
-111 -115 0
-111 -116 0
-111 -117 0
-111 -118 0
-111 -119 0
-111 -120 0
-112 -113 0
-112 -114 0
-112 -115 0
-112 -116 0
-112 -117 0
-112 -118 0
-112 -119 0
-112 -120 0
-113 -114 0
-113 -115 0
-113 -116 0
-113 -117 0
-113 -118 0
-113 -119 0
-113 -120 0
-114 -115 0
-114 -116 0
-114 -117 0
-114 -118 0
-114 -119 0
-114 -120 0
-115 -116 0
-115 -117 0
-115 -118 0
-115 -119 0
-115 -120 0
-116 -117 0
-116 -118 0
-116 -119 0
-116 -120 0
-117 -118 0
-117 -119 0
-117 -120 0
-118 -119 0
-118 -120 0
-119 -120 0
-355 334 109 0
-356 335 0
-357 336 110 0
-358 337 111 0
-359 338 112 0
-360 339 113 0
-361 340 0
-362 341 114 0
-363 342 115 0
-364 343 0
-365 344 116 0
-366 345 0
-367 346 117 0
-368 347 118 0
-369 348 119 0
-370 349 120 0
-371 350 0
-372 351 0
-373 352 0
-374 353 0
-375 354 0
-121 -122 0
-121 -123 0
-121 -124 0
-121 -125 0
-121 -126 0
-121 -127 0
-121 -128 0
-121 -129 0
-121 -130 0
-121 -131 0
-121 -132 0
-122 -123 0
-122 -124 0
-122 -125 0
-122 -126 0
-122 -127 0
-122 -128 0
-122 -129 0
-122 -130 0
-122 -131 0
-122 -132 0
-123 -124 0
-123 -125 0
-123 -126 0
-123 -127 0
-123 -128 0
-123 -129 0
-123 -130 0
-123 -131 0
-123 -132 0
-124 -125 0
-124 -126 0
-124 -127 0
-124 -128 0
-124 -129 0
-124 -130 0
-124 -131 0
-124 -132 0
-125 -126 0
-125 -127 0
-125 -128 0
-125 -129 0
-125 -130 0
-125 -131 0
-125 -132 0
-126 -127 0
-126 -128 0
-126 -129 0
-126 -130 0
-126 -131 0
-126 -132 0
-127 -128 0
-127 -129 0
-127 -130 0
-127 -131 0
-127 -132 0
-128 -129 0
-128 -130 0
-128 -131 0
-128 -132 0
-129 -130 0
-129 -131 0
-129 -132 0
-130 -131 0
-130 -132 0
-131 -132 0
-376 355 121 0
-377 356 0
-378 357 122 0
-379 358 123 0
-380 359 124 0
-381 360 125 0
-382 361 0
-383 362 126 0
-384 363 127 0
-385 364 0
-386 365 128 0
-387 366 0
-388 367 129 0
-389 368 130 0
-390 369 131 0
-391 370 132 0
-392 371 0
-393 372 0
-394 373 0
-395 374 0
-396 375 0
-133 -134 0
-133 -135 0
-133 -136 0
-133 -137 0
-133 -138 0
-133 -139 0
-133 -140 0
-133 -141 0
-133 -142 0
-133 -143 0
-133 -144 0
-134 -135 0
-134 -136 0
-134 -137 0
-134 -138 0
-134 -139 0
-134 -140 0
-134 -141 0
-134 -142 0
-134 -143 0
-134 -144 0
-135 -136 0
-135 -137 0
-135 -138 0
-135 -139 0
-135 -140 0
-135 -141 0
-135 -142 0
-135 -143 0
-135 -144 0
-136 -137 0
-136 -138 0
-136 -139 0
-136 -140 0
-136 -141 0
-136 -142 0
-136 -143 0
-136 -144 0
-137 -138 0
-137 -139 0
-137 -140 0
-137 -141 0
-137 -142 0
-137 -143 0
-137 -144 0
-138 -139 0
-138 -140 0
-138 -141 0
-138 -142 0
-138 -143 0
-138 -144 0
-139 -140 0
-139 -141 0
-139 -142 0
-139 -143 0
-139 -144 0
-140 -141 0
-140 -142 0
-140 -143 0
-140 -144 0
-141 -142 0
-141 -143 0
-141 -144 0
-142 -143 0
-142 -144 0
-143 -144 0
-397 376 133 0
-398 377 0
-399 378 134 0
-400 379 135 0
-401 380 136 0
-402 381 137 0
-403 382 0
-404 383 138 0
-405 384 139 0
-406 385 0
-407 386 140 0
-408 387 0
-409 388 141 0
-410 389 142 0
-411 390 143 0
-412 391 144 0
-413 392 0
-414 393 0
-415 394 0
-416 395 0
-417 396 0
-145 0
146 0
-147 0
-148 0
-149 0
-150 0
151 0
-152 0
-153 0
154 0
-155 0
156 0
-157 0
-158 0
-159 0
-160 0
161 0
162 0
163 0
164 0
165 0
1 13 25 37 49 61 73 85 97 109 121 133 0
2 14 26 38 50 62 74 86 98 110 122 134 0
3 15 27 39 51 63 75 87 99 111 123 135 0
4 16 28 40 52 64 76 88 100 112 124 136 0
5 17 29 41 53 65 77 89 101 113 125 137 0
6 18 30 42 54 66 78 90 102 114 126 138 0
7 19 31 43 55 67 79 91 103 115 127 139 0
8 20 32 44 56 68 80 92 104 116 128 140 0
9 21 33 45 57 69 81 93 105 117 129 141 0
10 22 34 46 58 70 82 94 106 118 130 142 0
11 23 35 47 59 71 83 95 107 119 131 143 0
12 24 36 48 60 72 84 96 108 120 132 144 0
-418 146 0
-418 149 0
-419 146 0
-419 149 0
-1 418 419 0
-2 0
-420 149 0
-420 164 0
-421 149 0
-421 164 0
-3 420 421 0
-422 145 0
-422 146 0
-423 145 0
-423 146 0
-424 148 0
-424 164 0
-425 148 0
-425 164 0
-426 150 0
-426 163 0
-427 150 0
-427 163 0
-428 151 0
-428 152 0
-429 151 0
-429 152 0
-4 422 423 424 425 426 427 428 429 0
-430 149 0
-430 163 0
-431 149 0
-431 163 0
-5 430 431 0
-432 149 0
-432 151 0
-433 149 0
-433 151 0
-434 153 0
-434 161 0
-435 153 0
-435 161 0
-436 154 0
-436 158 0
-437 154 0
-437 158 0
-6 432 433 434 435 436 437 0
-438 152 0
-438 161 0
-439 152 0
-439 161 0
-440 154 0
-440 162 0
-441 154 0
-441 162 0
-442 155 0
-442 156 0
-443 155 0
-443 156 0
-7 438 439 440 441 442 443 0
-444 153 0
-444 156 0
-445 153 0
-445 156 0
-8 444 445 0
-9 0
-446 152 0
-446 154 0
-447 152 0
-447 154 0
-448 159 0
-448 165 0
-449 159 0
-449 165 0
-450 161 0
-450 162 0
-451 161 0
-451 162 0
-10 446 447 448 449 450 451 0
-452 158 0
-452 165 0
-453 158 0
-453 165 0
-11 452 453 0
-12 0
-454 167 0
-454 170 0
-455 167 0
-455 170 0
-13 454 455 0
-14 0
-456 170 0
-456 185 0
-457 170 0
-457 185 0
-15 456 457 0
-458 166 0
-458 167 0
-459 166 0
-459 167 0
-460 169 0
-460 185 0
-461 169 0
-461 185 0
-462 171 0
-462 184 0
-463 171 0
-463 184 0
-464 172 0
-464 173 0
-465 172 0
-465 173 0
-16 458 459 460 461 462 463 464 465 0
-466 170 0
-466 184 0
-467 170 0
-467 184 0
-17 466 467 0
-468 170 0
-468 172 0
-469 170 0
-469 172 0
-470 174 0
-470 182 0
-471 174 0
-471 182 0
-472 175 0
-472 179 0
-473 175 0
-473 179 0
-18 468 469 470 471 472 473 0
-474 173 0
-474 182 0
-475 173 0
-475 182 0
-476 175 0
-476 183 0
-477 175 0
-477 183 0
-478 176 0
-478 177 0
-479 176 0
-479 177 0
-19 474 475 476 477 478 479 0
-480 174 0
-480 177 0
-481 174 0
-481 177 0
-20 480 481 0
-21 0
-482 173 0
-482 175 0
-483 173 0
-483 175 0
-484 180 0
-484 186 0
-485 180 0
-485 186 0
-486 182 0
-486 183 0
-487 182 0
-487 183 0
-22 482 483 484 485 486 487 0
-488 179 0
-488 186 0
-489 179 0
-489 186 0
-23 488 489 0
-24 0
-490 188 0
-490 191 0
-491 188 0
-491 191 0
-25 490 491 0
-26 0
-492 191 0
-492 206 0
-493 191 0
-493 206 0
-27 492 493 0
-494 187 0
-494 188 0
-495 187 0
-495 188 0
-496 190 0
-496 206 0
-497 190 0
-497 206 0
-498 192 0
-498 205 0
-499 192 0
-499 205 0
-500 193 0
-500 194 0
-501 193 0
-501 194 0
-28 494 495 496 497 498 499 500 501 0
-502 191 0
-502 205 0
-503 191 0
-503 205 0
-29 502 503 0
-504 191 0
-504 193 0
-505 191 0
-505 193 0
-506 195 0
-506 203 0
-507 195 0
-507 203 0
-508 196 0
-508 200 0
-509 196 0
-509 200 0
-30 504 505 506 507 508 509 0
-510 194 0
-510 203 0
-511 194 0
-511 203 0
-512 196 0
-512 204 0
-513 196 0
-513 204 0
-514 197 0
-514 198 0
-515 197 0
-515 198 0
-31 510 511 512 513 514 515 0
-516 195 0
-516 198 0
-517 195 0
-517 198 0
-32 516 517 0
-33 0
-518 194 0
-518 196 0
-519 194 0
-519 196 0
-520 201 0
-520 207 0
-521 201 0
-521 207 0
-522 203 0
-522 204 0
-523 203 0
-523 204 0
-34 518 519 520 521 522 523 0
-524 200 0
-524 207 0
-525 200 0
-525 207 0
-35 524 525 0
-36 0
-526 209 0
-526 212 0
-527 209 0
-527 212 0
-37 526 527 0
-38 0
-528 212 0
-528 227 0
-529 212 0
-529 227 0
-39 528 529 0
-530 208 0
-530 209 0
-531 208 0
-531 209 0
-532 211 0
-532 227 0
-533 211 0
-533 227 0
-534 213 0
-534 226 0
-535 213 0
-535 226 0
-536 214 0
-536 215 0
-537 214 0
-537 215 0
-40 530 531 532 533 534 535 536 537 0
-538 212 0
-538 226 0
-539 212 0
-539 226 0
-41 538 539 0
-540 212 0
-540 214 0
-541 212 0
-541 214 0
-542 216 0
-542 224 0
-543 216 0
-543 224 0
-544 217 0
-544 221 0
-545 217 0
-545 221 0
-42 540 541 542 543 544 545 0
-546 215 0
-546 224 0
-547 215 0
-547 224 0
-548 217 0
-548 225 0
-549 217 0
-549 225 0
-550 218 0
-550 219 0
-551 218 0
-551 219 0
-43 546 547 548 549 550 551 0
-552 216 0
-552 219 0
-553 216 0
-553 219 0
-44 552 553 0
-45 0
-554 215 0
-554 217 0
-555 215 0
-555 217 0
-556 222 0
-556 228 0
-557 222 0
-557 228 0
-558 224 0
-558 225 0
-559 224 0
-559 225 0
-46 554 555 556 557 558 559 0
-560 221 0
-560 228 0
-561 221 0
-561 228 0
-47 560 561 0
-48 0
-562 230 0
-562 233 0
-563 230 0
-563 233 0
-49 562 563 0
-50 0
-564 233 0
-564 248 0
-565 233 0
-565 248 0
-51 564 565 0
-566 229 0
-566 230 0
-567 229 0
-567 230 0
-568 232 0
-568 248 0
-569 232 0
-569 248 0
-570 234 0
-570 247 0
-571 234 0
-571 247 0
-572 235 0
-572 236 0
-573 235 0
-573 236 0
-52 566 567 568 569 570 571 572 573 0
-574 233 0
-574 247 0
-575 233 0
-575 247 0
-53 574 575 0
-576 233 0
-576 235 0
-577 233 0
-577 235 0
-578 237 0
-578 245 0
-579 237 0
-579 245 0
-580 238 0
-580 242 0
-581 238 0
-581 242 0
-54 576 577 578 579 580 581 0
-582 236 0
-582 245 0
-583 236 0
-583 245 0
-584 238 0
-584 246 0
-585 238 0
-585 246 0
-586 239 0
-586 240 0
-587 239 0
-587 240 0
-55 582 583 584 585 586 587 0
-588 237 0
-588 240 0
-589 237 0
-589 240 0
-56 588 589 0
-57 0
-590 236 0
-590 238 0
-591 236 0
-591 238 0
-592 243 0
-592 249 0
-593 243 0
-593 249 0
-594 245 0
-594 246 0
-595 245 0
-595 246 0
-58 590 591 592 593 594 595 0
-596 242 0
-596 249 0
-597 242 0
-597 249 0
-59 596 597 0
-60 0
-598 251 0
-598 254 0
-599 251 0
-599 254 0
-61 598 599 0
-62 0
-600 254 0
-600 269 0
-601 254 0
-601 269 0
-63 600 601 0
-602 250 0
-602 251 0
-603 250 0
-603 251 0
-604 253 0
-604 269 0
-605 253 0
-605 269 0
-606 255 0
-606 268 0
-607 255 0
-607 268 0
-608 256 0
-608 257 0
-609 256 0
-609 257 0
-64 602 603 604 605 606 607 608 609 0
-610 254 0
-610 268 0
-611 254 0
-611 268 0
-65 610 611 0
-612 254 0
-612 256 0
-613 254 0
-613 256 0
-614 258 0
-614 266 0
-615 258 0
-615 266 0
-616 259 0
-616 263 0
-617 259 0
-617 263 0
-66 612 613 614 615 616 617 0
-618 257 0
-618 266 0
-619 257 0
-619 266 0
-620 259 0
-620 267 0
-621 259 0
-621 267 0
-622 260 0
-622 261 0
-623 260 0
-623 261 0
-67 618 619 620 621 622 623 0
-624 258 0
-624 261 0
-625 258 0
-625 261 0
-68 624 625 0
-69 0
-626 257 0
-626 259 0
-627 257 0
-627 259 0
-628 264 0
-628 270 0
-629 264 0
-629 270 0
-630 266 0
-630 267 0
-631 266 0
-631 267 0
-70 626 627 628 629 630 631 0
-632 263 0
-632 270 0
-633 263 0
-633 270 0
-71 632 633 0
-72 0
-634 272 0
-634 275 0
-635 272 0
-635 275 0
-73 634 635 0
-74 0
-636 275 0
-636 290 0
-637 275 0
-637 290 0
-75 636 637 0
-638 271 0
-638 272 0
-639 271 0
-639 272 0
-640 274 0
-640 290 0
-641 274 0
-641 290 0
-642 276 0
-642 289 0
-643 276 0
-643 289 0
-644 277 0
-644 278 0
-645 277 0
-645 278 0
-76 638 639 640 641 642 643 644 645 0
-646 275 0
-646 289 0
-647 275 0
-647 289 0
-77 646 647 0
-648 275 0
-648 277 0
-649 275 0
-649 277 0
-650 279 0
-650 287 0
-651 279 0
-651 287 0
-652 280 0
-652 284 0
-653 280 0
-653 284 0
-78 648 649 650 651 652 653 0
-654 278 0
-654 287 0
-655 278 0
-655 287 0
-656 280 0
-656 288 0
-657 280 0
-657 288 0
-658 281 0
-658 282 0
-659 281 0
-659 282 0
-79 654 655 656 657 658 659 0
-660 279 0
-660 282 0
-661 279 0
-661 282 0
-80 660 661 0
-81 0
-662 278 0
-662 280 0
-663 278 0
-663 280 0
-664 285 0
-664 291 0
-665 285 0
-665 291 0
-666 287 0
-666 288 0
-667 287 0
-667 288 0
-82 662 663 664 665 666 667 0
-668 284 0
-668 291 0
-669 284 0
-669 291 0
-83 668 669 0
-84 0
-670 293 0
-670 296 0
-671 293 0
-671 296 0
-85 670 671 0
-86 0
-672 296 0
-672 311 0
-673 296 0
-673 311 0
-87 672 673 0
-674 292 0
-674 293 0
-675 292 0
-675 293 0
-676 295 0
-676 311 0
-677 295 0
-677 311 0
-678 297 0
-678 310 0
-679 297 0
-679 310 0
-680 298 0
-680 299 0
-681 298 0
-681 299 0
-88 674 675 676 677 678 679 680 681 0
-682 296 0
-682 310 0
-683 296 0
-683 310 0
-89 682 683 0
-684 296 0
-684 298 0
-685 296 0
-685 298 0
-686 300 0
-686 308 0
-687 300 0
-687 308 0
-688 301 0
-688 305 0
-689 301 0
-689 305 0
-90 684 685 686 687 688 689 0
-690 299 0
-690 308 0
-691 299 0
-691 308 0
-692 301 0
-692 309 0
-693 301 0
-693 309 0
-694 302 0
-694 303 0
-695 302 0
-695 303 0
-91 690 691 692 693 694 695 0
-696 300 0
-696 303 0
-697 300 0
-697 303 0
-92 696 697 0
-93 0
-698 299 0
-698 301 0
-699 299 0
-699 301 0
-700 306 0
-700 312 0
-701 306 0
-701 312 0
-702 308 0
-702 309 0
-703 308 0
-703 309 0
-94 698 699 700 701 702 703 0
-704 305 0
-704 312 0
-705 305 0
-705 312 0
-95 704 705 0
-96 0
-706 314 0
-706 317 0
-707 314 0
-707 317 0
-97 706 707 0
-98 0
-708 317 0
-708 332 0
-709 317 0
-709 332 0
-99 708 709 0
-710 313 0
-710 314 0
-711 313 0
-711 314 0
-712 316 0
-712 332 0
-713 316 0
-713 332 0
-714 318 0
-714 331 0
-715 318 0
-715 331 0
-716 319 0
-716 320 0
-717 319 0
-717 320 0
-100 710 711 712 713 714 715 716 717 0
-718 317 0
-718 331 0
-719 317 0
-719 331 0
-101 718 719 0
-720 317 0
-720 319 0
-721 317 0
-721 319 0
-722 321 0
-722 329 0
-723 321 0
-723 329 0
-724 322 0
-724 326 0
-725 322 0
-725 326 0
-102 720 721 722 723 724 725 0
-726 320 0
-726 329 0
-727 320 0
-727 329 0
-728 322 0
-728 330 0
-729 322 0
-729 330 0
-730 323 0
-730 324 0
-731 323 0
-731 324 0
-103 726 727 728 729 730 731 0
-732 321 0
-732 324 0
-733 321 0
-733 324 0
-104 732 733 0
-105 0
-734 320 0
-734 322 0
-735 320 0
-735 322 0
-736 327 0
-736 333 0
-737 327 0
-737 333 0
-738 329 0
-738 330 0
-739 329 0
-739 330 0
-106 734 735 736 737 738 739 0
-740 326 0
-740 333 0
-741 326 0
-741 333 0
-107 740 741 0
-108 0
-742 335 0
-742 338 0
-743 335 0
-743 338 0
-109 742 743 0
-110 0
-744 338 0
-744 353 0
-745 338 0
-745 353 0
-111 744 745 0
-746 334 0
-746 335 0
-747 334 0
-747 335 0
-748 337 0
-748 353 0
-749 337 0
-749 353 0
-750 339 0
-750 352 0
-751 339 0
-751 352 0
-752 340 0
-752 341 0
-753 340 0
-753 341 0
-112 746 747 748 749 750 751 752 753 0
-754 338 0
-754 352 0
-755 338 0
-755 352 0
-113 754 755 0
-756 338 0
-756 340 0
-757 338 0
-757 340 0
-758 342 0
-758 350 0
-759 342 0
-759 350 0
-760 343 0
-760 347 0
-761 343 0
-761 347 0
-114 756 757 758 759 760 761 0
-762 341 0
-762 350 0
-763 341 0
-763 350 0
-764 343 0
-764 351 0
-765 343 0
-765 351 0
-766 344 0
-766 345 0
-767 344 0
-767 345 0
-115 762 763 764 765 766 767 0
-768 342 0
-768 345 0
-769 342 0
-769 345 0
-116 768 769 0
-117 0
-770 341 0
-770 343 0
-771 341 0
-771 343 0
-772 348 0
-772 354 0
-773 348 0
-773 354 0
-774 350 0
-774 351 0
-775 350 0
-775 351 0
-118 770 771 772 773 774 775 0
-776 347 0
-776 354 0
-777 347 0
-777 354 0
-119 776 777 0
-120 0
-778 356 0
-778 359 0
-779 356 0
-779 359 0
-121 778 779 0
-122 0
-780 359 0
-780 374 0
-781 359 0
-781 374 0
-123 780 781 0
-782 355 0
-782 356 0
-783 355 0
-783 356 0
-784 358 0
-784 374 0
-785 358 0
-785 374 0
-786 360 0
-786 373 0
-787 360 0
-787 373 0
-788 361 0
-788 362 0
-789 361 0
-789 362 0
-124 782 783 784 785 786 787 788 789 0
-790 359 0
-790 373 0
-791 359 0
-791 373 0
-125 790 791 0
-792 359 0
-792 361 0
-793 359 0
-793 361 0
-794 363 0
-794 371 0
-795 363 0
-795 371 0
-796 364 0
-796 368 0
-797 364 0
-797 368 0
-126 792 793 794 795 796 797 0
-798 362 0
-798 371 0
-799 362 0
-799 371 0
-800 364 0
-800 372 0
-801 364 0
-801 372 0
-802 365 0
-802 366 0
-803 365 0
-803 366 0
-127 798 799 800 801 802 803 0
-804 363 0
-804 366 0
-805 363 0
-805 366 0
-128 804 805 0
-129 0
-806 362 0
-806 364 0
-807 362 0
-807 364 0
-808 369 0
-808 375 0
-809 369 0
-809 375 0
-810 371 0
-810 372 0
-811 371 0
-811 372 0
-130 806 807 808 809 810 811 0
-812 368 0
-812 375 0
-813 368 0
-813 375 0
-131 812 813 0
-132 0
-814 377 0
-814 380 0
-815 377 0
-815 380 0
-133 814 815 0
-134 0
-816 380 0
-816 395 0
-817 380 0
-817 395 0
-135 816 817 0
-818 376 0
-818 377 0
-819 376 0
-819 377 0
-820 379 0
-820 395 0
-821 379 0
-821 395 0
-822 381 0
-822 394 0
-823 381 0
-823 394 0
-824 382 0
-824 383 0
-825 382 0
-825 383 0
-136 818 819 820 821 822 823 824 825 0
-826 380 0
-826 394 0
-827 380 0
-827 394 0
-137 826 827 0
-828 380 0
-828 382 0
-829 380 0
-829 382 0
-830 384 0
-830 392 0
-831 384 0
-831 392 0
-832 385 0
-832 389 0
-833 385 0
-833 389 0
-138 828 829 830 831 832 833 0
-834 383 0
-834 392 0
-835 383 0
-835 392 0
-836 385 0
-836 393 0
-837 385 0
-837 393 0
-838 386 0
-838 387 0
-839 386 0
-839 387 0
-139 834 835 836 837 838 839 0
-840 384 0
-840 387 0
-841 384 0
-841 387 0
-140 840 841 0
-141 0
-842 383 0
-842 385 0
-843 383 0
-843 385 0
-844 390 0
-844 396 0
-845 390 0
-845 396 0
-846 392 0
-846 393 0
-847 392 0
-847 393 0
-142 842 843 844 845 846 847 0
-848 389 0
-848 396 0
-849 389 0
-849 396 0
-143 848 849 0
-144 0
