p cnf 1075 2700
-1 -2 0
-1 -3 0
-1 -4 0
-1 -5 0
-1 -6 0
-1 -7 0
-1 -8 0
-1 -9 0
-1 -10 0
-1 -11 0
-1 -12 0
-1 -13 0
-2 -3 0
-2 -4 0
-2 -5 0
-2 -6 0
-2 -7 0
-2 -8 0
-2 -9 0
-2 -10 0
-2 -11 0
-2 -12 0
-2 -13 0
-3 -4 0
-3 -5 0
-3 -6 0
-3 -7 0
-3 -8 0
-3 -9 0
-3 -10 0
-3 -11 0
-3 -12 0
-3 -13 0
-4 -5 0
-4 -6 0
-4 -7 0
-4 -8 0
-4 -9 0
-4 -10 0
-4 -11 0
-4 -12 0
-4 -13 0
-5 -6 0
-5 -7 0
-5 -8 0
-5 -9 0
-5 -10 0
-5 -11 0
-5 -12 0
-5 -13 0
-6 -7 0
-6 -8 0
-6 -9 0
-6 -10 0
-6 -11 0
-6 -12 0
-6 -13 0
-7 -8 0
-7 -9 0
-7 -10 0
-7 -11 0
-7 -12 0
-7 -13 0
-8 -9 0
-8 -10 0
-8 -11 0
-8 -12 0
-8 -13 0
-9 -10 0
-9 -11 0
-9 -12 0
-9 -13 0
-10 -11 0
-10 -12 0
-10 -13 0
-11 -12 0
-11 -13 0
-12 -13 0
-192 170 0
-193 171 1 0
-194 172 2 0
-195 173 3 0
-196 174 0
-197 175 4 0
-198 176 0
-199 177 5 0
-200 178 6 0
-201 179 7 0
-202 180 0
-203 181 8 0
-204 182 9 0
-205 183 10 0
-206 184 11 0
-207 185 12 0
-208 186 0
-209 187 0
-210 188 0
-211 189 13 0
-212 190 0
-213 191 0
-14 -15 0
-14 -16 0
-14 -17 0
-14 -18 0
-14 -19 0
-14 -20 0
-14 -21 0
-14 -22 0
-14 -23 0
-14 -24 0
-14 -25 0
-14 -26 0
-15 -16 0
-15 -17 0
-15 -18 0
-15 -19 0
-15 -20 0
-15 -21 0
-15 -22 0
-15 -23 0
-15 -24 0
-15 -25 0
-15 -26 0
-16 -17 0
-16 -18 0
-16 -19 0
-16 -20 0
-16 -21 0
-16 -22 0
-16 -23 0
-16 -24 0
-16 -25 0
-16 -26 0
-17 -18 0
-17 -19 0
-17 -20 0
-17 -21 0
-17 -22 0
-17 -23 0
-17 -24 0
-17 -25 0
-17 -26 0
-18 -19 0
-18 -20 0
-18 -21 0
-18 -22 0
-18 -23 0
-18 -24 0
-18 -25 0
-18 -26 0
-19 -20 0
-19 -21 0
-19 -22 0
-19 -23 0
-19 -24 0
-19 -25 0
-19 -26 0
-20 -21 0
-20 -22 0
-20 -23 0
-20 -24 0
-20 -25 0
-20 -26 0
-21 -22 0
-21 -23 0
-21 -24 0
-21 -25 0
-21 -26 0
-22 -23 0
-22 -24 0
-22 -25 0
-22 -26 0
-23 -24 0
-23 -25 0
-23 -26 0
-24 -25 0
-24 -26 0
-25 -26 0
-214 192 0
-215 193 14 0
-216 194 15 0
-217 195 16 0
-218 196 0
-219 197 17 0
-220 198 0
-221 199 18 0
-222 200 19 0
-223 201 20 0
-224 202 0
-225 203 21 0
-226 204 22 0
-227 205 23 0
-228 206 24 0
-229 207 25 0
-230 208 0
-231 209 0
-232 210 0
-233 211 26 0
-234 212 0
-235 213 0
-27 -28 0
-27 -29 0
-27 -30 0
-27 -31 0
-27 -32 0
-27 -33 0
-27 -34 0
-27 -35 0
-27 -36 0
-27 -37 0
-27 -38 0
-27 -39 0
-28 -29 0
-28 -30 0
-28 -31 0
-28 -32 0
-28 -33 0
-28 -34 0
-28 -35 0
-28 -36 0
-28 -37 0
-28 -38 0
-28 -39 0
-29 -30 0
-29 -31 0
-29 -32 0
-29 -33 0
-29 -34 0
-29 -35 0
-29 -36 0
-29 -37 0
-29 -38 0
-29 -39 0
-30 -31 0
-30 -32 0
-30 -33 0
-30 -34 0
-30 -35 0
-30 -36 0
-30 -37 0
-30 -38 0
-30 -39 0
-31 -32 0
-31 -33 0
-31 -34 0
-31 -35 0
-31 -36 0
-31 -37 0
-31 -38 0
-31 -39 0
-32 -33 0
-32 -34 0
-32 -35 0
-32 -36 0
-32 -37 0
-32 -38 0
-32 -39 0
-33 -34 0
-33 -35 0
-33 -36 0
-33 -37 0
-33 -38 0
-33 -39 0
-34 -35 0
-34 -36 0
-34 -37 0
-34 -38 0
-34 -39 0
-35 -36 0
-35 -37 0
-35 -38 0
-35 -39 0
-36 -37 0
-36 -38 0
-36 -39 0
-37 -38 0
-37 -39 0
-38 -39 0
-236 214 0
-237 215 27 0
-238 216 28 0
-239 217 29 0
-240 218 0
-241 219 30 0
-242 220 0
-243 221 31 0
-244 222 32 0
-245 223 33 0
-246 224 0
-247 225 34 0
-248 226 35 0
-249 227 36 0
-250 228 37 0
-251 229 38 0
-252 230 0
-253 231 0
-254 232 0
-255 233 39 0
-256 234 0
-257 235 0
-40 -41 0
-40 -42 0
-40 -43 0
-40 -44 0
-40 -45 0
-40 -46 0
-40 -47 0
-40 -48 0
-40 -49 0
-40 -50 0
-40 -51 0
-40 -52 0
-41 -42 0
-41 -43 0
-41 -44 0
-41 -45 0
-41 -46 0
-41 -47 0
-41 -48 0
-41 -49 0
-41 -50 0
-41 -51 0
-41 -52 0
-42 -43 0
-42 -44 0
-42 -45 0
-42 -46 0
-42 -47 0
-42 -48 0
-42 -49 0
-42 -50 0
-42 -51 0
-42 -52 0
-43 -44 0
-43 -45 0
-43 -46 0
-43 -47 0
-43 -48 0
-43 -49 0
-43 -50 0
-43 -51 0
-43 -52 0
-44 -45 0
-44 -46 0
-44 -47 0
-44 -48 0
-44 -49 0
-44 -50 0
-44 -51 0
-44 -52 0
-45 -46 0
-45 -47 0
-45 -48 0
-45 -49 0
-45 -50 0
-45 -51 0
-45 -52 0
-46 -47 0
-46 -48 0
-46 -49 0
-46 -50 0
-46 -51 0
-46 -52 0
-47 -48 0
-47 -49 0
-47 -50 0
-47 -51 0
-47 -52 0
-48 -49 0
-48 -50 0
-48 -51 0
-48 -52 0
-49 -50 0
-49 -51 0
-49 -52 0
-50 -51 0
-50 -52 0
-51 -52 0
-258 236 0
-259 237 40 0
-260 238 41 0
-261 239 42 0
-262 240 0
-263 241 43 0
-264 242 0
-265 243 44 0
-266 244 45 0
-267 245 46 0
-268 246 0
-269 247 47 0
-270 248 48 0
-271 249 49 0
-272 250 50 0
-273 251 51 0
-274 252 0
-275 253 0
-276 254 0
-277 255 52 0
-278 256 0
-279 257 0
-53 -54 0
-53 -55 0
-53 -56 0
-53 -57 0
-53 -58 0
-53 -59 0
-53 -60 0
-53 -61 0
-53 -62 0
-53 -63 0
-53 -64 0
-53 -65 0
-54 -55 0
-54 -56 0
-54 -57 0
-54 -58 0
-54 -59 0
-54 -60 0
-54 -61 0
-54 -62 0
-54 -63 0
-54 -64 0
-54 -65 0
-55 -56 0
-55 -57 0
-55 -58 0
-55 -59 0
-55 -60 0
-55 -61 0
-55 -62 0
-55 -63 0
-55 -64 0
-55 -65 0
-56 -57 0
-56 -58 0
-56 -59 0
-56 -60 0
-56 -61 0
-56 -62 0
-56 -63 0
-56 -64 0
-56 -65 0
-57 -58 0
-57 -59 0
-57 -60 0
-57 -61 0
-57 -62 0
-57 -63 0
-57 -64 0
-57 -65 0
-58 -59 0
-58 -60 0
-58 -61 0
-58 -62 0
-58 -63 0
-58 -64 0
-58 -65 0
-59 -60 0
-59 -61 0
-59 -62 0
-59 -63 0
-59 -64 0
-59 -65 0
-60 -61 0
-60 -62 0
-60 -63 0
-60 -64 0
-60 -65 0
-61 -62 0
-61 -63 0
-61 -64 0
-61 -65 0
-62 -63 0
-62 -64 0
-62 -65 0
-63 -64 0
-63 -65 0
-64 -65 0
-280 258 0
-281 259 53 0
-282 260 54 0
-283 261 55 0
-284 262 0
-285 263 56 0
-286 264 0
-287 265 57 0
-288 266 58 0
-289 267 59 0
-290 268 0
-291 269 60 0
-292 270 61 0
-293 271 62 0
-294 272 63 0
-295 273 64 0
-296 274 0
-297 275 0
-298 276 0
-299 277 65 0
-300 278 0
-301 279 0
-66 -67 0
-66 -68 0
-66 -69 0
-66 -70 0
-66 -71 0
-66 -72 0
-66 -73 0
-66 -74 0
-66 -75 0
-66 -76 0
-66 -77 0
-66 -78 0
-67 -68 0
-67 -69 0
-67 -70 0
-67 -71 0
-67 -72 0
-67 -73 0
-67 -74 0
-67 -75 0
-67 -76 0
-67 -77 0
-67 -78 0
-68 -69 0
-68 -70 0
-68 -71 0
-68 -72 0
-68 -73 0
-68 -74 0
-68 -75 0
-68 -76 0
-68 -77 0
-68 -78 0
-69 -70 0
-69 -71 0
-69 -72 0
-69 -73 0
-69 -74 0
-69 -75 0
-69 -76 0
-69 -77 0
-69 -78 0
-70 -71 0
-70 -72 0
-70 -73 0
-70 -74 0
-70 -75 0
-70 -76 0
-70 -77 0
-70 -78 0
-71 -72 0
-71 -73 0
-71 -74 0
-71 -75 0
-71 -76 0
-71 -77 0
-71 -78 0
-72 -73 0
-72 -74 0
-72 -75 0
-72 -76 0
-72 -77 0
-72 -78 0
-73 -74 0
-73 -75 0
-73 -76 0
-73 -77 0
-73 -78 0
-74 -75 0
-74 -76 0
-74 -77 0
-74 -78 0
-75 -76 0
-75 -77 0
-75 -78 0
-76 -77 0
-76 -78 0
-77 -78 0
-302 280 0
-303 281 66 0
-304 282 67 0
-305 283 68 0
-306 284 0
-307 285 69 0
-308 286 0
-309 287 70 0
-310 288 71 0
-311 289 72 0
-312 290 0
-313 291 73 0
-314 292 74 0
-315 293 75 0
-316 294 76 0
-317 295 77 0
-318 296 0
-319 297 0
-320 298 0
-321 299 78 0
-322 300 0
-323 301 0
-79 -80 0
-79 -81 0
-79 -82 0
-79 -83 0
-79 -84 0
-79 -85 0
-79 -86 0
-79 -87 0
-79 -88 0
-79 -89 0
-79 -90 0
-79 -91 0
-80 -81 0
-80 -82 0
-80 -83 0
-80 -84 0
-80 -85 0
-80 -86 0
-80 -87 0
-80 -88 0
-80 -89 0
-80 -90 0
-80 -91 0
-81 -82 0
-81 -83 0
-81 -84 0
-81 -85 0
-81 -86 0
-81 -87 0
-81 -88 0
-81 -89 0
-81 -90 0
-81 -91 0
-82 -83 0
-82 -84 0
-82 -85 0
-82 -86 0
-82 -87 0
-82 -88 0
-82 -89 0
-82 -90 0
-82 -91 0
-83 -84 0
-83 -85 0
-83 -86 0
-83 -87 0
-83 -88 0
-83 -89 0
-83 -90 0
-83 -91 0
-84 -85 0
-84 -86 0
-84 -87 0
-84 -88 0
-84 -89 0
-84 -90 0
-84 -91 0
-85 -86 0
-85 -87 0
-85 -88 0
-85 -89 0
-85 -90 0
-85 -91 0
-86 -87 0
-86 -88 0
-86 -89 0
-86 -90 0
-86 -91 0
-87 -88 0
-87 -89 0
-87 -90 0
-87 -91 0
-88 -89 0
-88 -90 0
-88 -91 0
-89 -90 0
-89 -91 0
-90 -91 0
-324 302 0
-325 303 79 0
-326 304 80 0
-327 305 81 0
-328 306 0
-329 307 82 0
-330 308 0
-331 309 83 0
-332 310 84 0
-333 311 85 0
-334 312 0
-335 313 86 0
-336 314 87 0
-337 315 88 0
-338 316 89 0
-339 317 90 0
-340 318 0
-341 319 0
-342 320 0
-343 321 91 0
-344 322 0
-345 323 0
-92 -93 0
-92 -94 0
-92 -95 0
-92 -96 0
-92 -97 0
-92 -98 0
-92 -99 0
-92 -100 0
-92 -101 0
-92 -102 0
-92 -103 0
-92 -104 0
-93 -94 0
-93 -95 0
-93 -96 0
-93 -97 0
-93 -98 0
-93 -99 0
-93 -100 0
-93 -101 0
-93 -102 0
-93 -103 0
-93 -104 0
-94 -95 0
-94 -96 0
-94 -97 0
-94 -98 0
-94 -99 0
-94 -100 0
-94 -101 0
-94 -102 0
-94 -103 0
-94 -104 0
-95 -96 0
-95 -97 0
-95 -98 0
-95 -99 0
-95 -100 0
-95 -101 0
-95 -102 0
-95 -103 0
-95 -104 0
-96 -97 0
-96 -98 0
-96 -99 0
-96 -100 0
-96 -101 0
-96 -102 0
-96 -103 0
-96 -104 0
-97 -98 0
-97 -99 0
-97 -100 0
-97 -101 0
-97 -102 0
-97 -103 0
-97 -104 0
-98 -99 0
-98 -100 0
-98 -101 0
-98 -102 0
-98 -103 0
-98 -104 0
-99 -100 0
-99 -101 0
-99 -102 0
-99 -103 0
-99 -104 0
-100 -101 0
-100 -102 0
-100 -103 0
-100 -104 0
-101 -102 0
-101 -103 0
-101 -104 0
-102 -103 0
-102 -104 0
-103 -104 0
-346 324 0
-347 325 92 0
-348 326 93 0
-349 327 94 0
-350 328 0
-351 329 95 0
-352 330 0
-353 331 96 0
-354 332 97 0
-355 333 98 0
-356 334 0
-357 335 99 0
-358 336 100 0
-359 337 101 0
-360 338 102 0
-361 339 103 0
-362 340 0
-363 341 0
-364 342 0
-365 343 104 0
-366 344 0
-367 345 0
-105 -106 0
-105 -107 0
-105 -108 0
-105 -109 0
-105 -110 0
-105 -111 0
-105 -112 0
-105 -113 0
-105 -114 0
-105 -115 0
-105 -116 0
-105 -117 0
-106 -107 0
-106 -108 0
-106 -109 0
-106 -110 0
-106 -111 0
-106 -112 0
-106 -113 0
-106 -114 0
-106 -115 0
-106 -116 0
-106 -117 0
-107 -108 0
-107 -109 0
-107 -110 0
-107 -111 0
-107 -112 0
-107 -113 0
-107 -114 0
-107 -115 0
-107 -116 0
-107 -117 0
-108 -109 0
-108 -110 0
-108 -111 0
-108 -112 0
-108 -113 0
-108 -114 0
-108 -115 0
-108 -116 0
-108 -117 0
-109 -110 0
-109 -111 0
-109 -112 0
-109 -113 0
-109 -114 0
-109 -115 0
-109 -116 0
-109 -117 0
-110 -111 0
-110 -112 0
-110 -113 0
-110 -114 0
-110 -115 0
-110 -116 0
-110 -117 0
-111 -112 0
-111 -113 0
-111 -114 0
-111 -115 0
-111 -116 0
-111 -117 0
-112 -113 0
-112 -114 0
-112 -115 0
-112 -116 0
-112 -117 0
-113 -114 0
-113 -115 0
-113 -116 0
-113 -117 0
-114 -115 0
-114 -116 0
-114 -117 0
-115 -116 0
-115 -117 0
-116 -117 0
-368 346 0
-369 347 105 0
-370 348 106 0
-371 349 107 0
-372 350 0
-373 351 108 0
-374 352 0
-375 353 109 0
-376 354 110 0
-377 355 111 0
-378 356 0
-379 357 112 0
-380 358 113 0
-381 359 114 0
-382 360 115 0
-383 361 116 0
-384 362 0
-385 363 0
-386 364 0
-387 365 117 0
-388 366 0
-389 367 0
-118 -119 0
-118 -120 0
-118 -121 0
-118 -122 0
-118 -123 0
-118 -124 0
-118 -125 0
-118 -126 0
-118 -127 0
-118 -128 0
-118 -129 0
-118 -130 0
-119 -120 0
-119 -121 0
-119 -122 0
-119 -123 0
-119 -124 0
-119 -125 0
-119 -126 0
-119 -127 0
-119 -128 0
-119 -129 0
-119 -130 0
-120 -121 0
-120 -122 0
-120 -123 0
-120 -124 0
-120 -125 0
-120 -126 0
-120 -127 0
-120 -128 0
-120 -129 0
-120 -130 0
-121 -122 0
-121 -123 0
-121 -124 0
-121 -125 0
-121 -126 0
-121 -127 0
-121 -128 0
-121 -129 0
-121 -130 0
-122 -123 0
-122 -124 0
-122 -125 0
-122 -126 0
-122 -127 0
-122 -128 0
-122 -129 0
-122 -130 0
-123 -124 0
-123 -125 0
-123 -126 0
-123 -127 0
-123 -128 0
-123 -129 0
-123 -130 0
-124 -125 0
-124 -126 0
-124 -127 0
-124 -128 0
-124 -129 0
-124 -130 0
-125 -126 0
-125 -127 0
-125 -128 0
-125 -129 0
-125 -130 0
-126 -127 0
-126 -128 0
-126 -129 0
-126 -130 0
-127 -128 0
-127 -129 0
-127 -130 0
-128 -129 0
-128 -130 0
-129 -130 0
-390 368 0
-391 369 118 0
-392 370 119 0
-393 371 120 0
-394 372 0
-395 373 121 0
-396 374 0
-397 375 122 0
-398 376 123 0
-399 377 124 0
-400 378 0
-401 379 125 0
-402 380 126 0
-403 381 127 0
-404 382 128 0
-405 383 129 0
-406 384 0
-407 385 0
-408 386 0
-409 387 130 0
-410 388 0
-411 389 0
-131 -132 0
-131 -133 0
-131 -134 0
-131 -135 0
-131 -136 0
-131 -137 0
-131 -138 0
-131 -139 0
-131 -140 0
-131 -141 0
-131 -142 0
-131 -143 0
-132 -133 0
-132 -134 0
-132 -135 0
-132 -136 0
-132 -137 0
-132 -138 0
-132 -139 0
-132 -140 0
-132 -141 0
-132 -142 0
-132 -143 0
-133 -134 0
-133 -135 0
-133 -136 0
-133 -137 0
-133 -138 0
-133 -139 0
-133 -140 0
-133 -141 0
-133 -142 0
-133 -143 0
-134 -135 0
-134 -136 0
-134 -137 0
-134 -138 0
-134 -139 0
-134 -140 0
-134 -141 0
-134 -142 0
-134 -143 0
-135 -136 0
-135 -137 0
-135 -138 0
-135 -139 0
-135 -140 0
-135 -141 0
-135 -142 0
-135 -143 0
-136 -137 0
-136 -138 0
-136 -139 0
-136 -140 0
-136 -141 0
-136 -142 0
-136 -143 0
-137 -138 0
-137 -139 0
-137 -140 0
-137 -141 0
-137 -142 0
-137 -143 0
-138 -139 0
-138 -140 0
-138 -141 0
-138 -142 0
-138 -143 0
-139 -140 0
-139 -141 0
-139 -142 0
-139 -143 0
-140 -141 0
-140 -142 0
-140 -143 0
-141 -142 0
-141 -143 0
-142 -143 0
-412 390 0
-413 391 131 0
-414 392 132 0
-415 393 133 0
-416 394 0
-417 395 134 0
-418 396 0
-419 397 135 0
-420 398 136 0
-421 399 137 0
-422 400 0
-423 401 138 0
-424 402 139 0
-425 403 140 0
-426 404 141 0
-427 405 142 0
-428 406 0
-429 407 0
-430 408 0
-431 409 143 0
-432 410 0
-433 411 0
-144 -145 0
-144 -146 0
-144 -147 0
-144 -148 0
-144 -149 0
-144 -150 0
-144 -151 0
-144 -152 0
-144 -153 0
-144 -154 0
-144 -155 0
-144 -156 0
-145 -146 0
-145 -147 0
-145 -148 0
-145 -149 0
-145 -150 0
-145 -151 0
-145 -152 0
-145 -153 0
-145 -154 0
-145 -155 0
-145 -156 0
-146 -147 0
-146 -148 0
-146 -149 0
-146 -150 0
-146 -151 0
-146 -152 0
-146 -153 0
-146 -154 0
-146 -155 0
-146 -156 0
-147 -148 0
-147 -149 0
-147 -150 0
-147 -151 0
-147 -152 0
-147 -153 0
-147 -154 0
-147 -155 0
-147 -156 0
-148 -149 0
-148 -150 0
-148 -151 0
-148 -152 0
-148 -153 0
-148 -154 0
-148 -155 0
-148 -156 0
-149 -150 0
-149 -151 0
-149 -152 0
-149 -153 0
-149 -154 0
-149 -155 0
-149 -156 0
-150 -151 0
-150 -152 0
-150 -153 0
-150 -154 0
-150 -155 0
-150 -156 0
-151 -152 0
-151 -153 0
-151 -154 0
-151 -155 0
-151 -156 0
-152 -153 0
-152 -154 0
-152 -155 0
-152 -156 0
-153 -154 0
-153 -155 0
-153 -156 0
-154 -155 0
-154 -156 0
-155 -156 0
-434 412 0
-435 413 144 0
-436 414 145 0
-437 415 146 0
-438 416 0
-439 417 147 0
-440 418 0
-441 419 148 0
-442 420 149 0
-443 421 150 0
-444 422 0
-445 423 151 0
-446 424 152 0
-447 425 153 0
-448 426 154 0
-449 427 155 0
-450 428 0
-451 429 0
-452 430 0
-453 431 156 0
-454 432 0
-455 433 0
-157 -158 0
-157 -159 0
-157 -160 0
-157 -161 0
-157 -162 0
-157 -163 0
-157 -164 0
-157 -165 0
-157 -166 0
-157 -167 0
-157 -168 0
-157 -169 0
-158 -159 0
-158 -160 0
-158 -161 0
-158 -162 0
-158 -163 0
-158 -164 0
-158 -165 0
-158 -166 0
-158 -167 0
-158 -168 0
-158 -169 0
-159 -160 0
-159 -161 0
-159 -162 0
-159 -163 0
-159 -164 0
-159 -165 0
-159 -166 0
-159 -167 0
-159 -168 0
-159 -169 0
-160 -161 0
-160 -162 0
-160 -163 0
-160 -164 0
-160 -165 0
-160 -166 0
-160 -167 0
-160 -168 0
-160 -169 0
-161 -162 0
-161 -163 0
-161 -164 0
-161 -165 0
-161 -166 0
-161 -167 0
-161 -168 0
-161 -169 0
-162 -163 0
-162 -164 0
-162 -165 0
-162 -166 0
-162 -167 0
-162 -168 0
-162 -169 0
-163 -164 0
-163 -165 0
-163 -166 0
-163 -167 0
-163 -168 0
-163 -169 0
-164 -165 0
-164 -166 0
-164 -167 0
-164 -168 0
-164 -169 0
-165 -166 0
-165 -167 0
-165 -168 0
-165 -169 0
-166 -167 0
-166 -168 0
-166 -169 0
-167 -168 0
-167 -169 0
-168 -169 0
-456 434 0
-457 435 157 0
-458 436 158 0
-459 437 159 0
-460 438 0
-461 439 160 0
-462 440 0
-463 441 161 0
-464 442 162 0
-465 443 163 0
-466 444 0
-467 445 164 0
-468 446 165 0
-469 447 166 0
-470 448 167 0
-471 449 168 0
-472 450 0
-473 451 0
-474 452 0
-475 453 169 0
-476 454 0
-477 455 0
170 0
-171 0
-172 0
-173 0
174 0
-175 0
176 0
-177 0
-178 0
-179 0
180 0
-181 0
-182 0
-183 0
-184 0
-185 0
186 0
187 0
188 0
-189 0
190 0
191 0
1 14 27 40 53 66 79 92 105 118 131 144 157 0
2 15 28 41 54 67 80 93 106 119 132 145 158 0
3 16 29 42 55 68 81 94 107 120 133 146 159 0
4 17 30 43 56 69 82 95 108 121 134 147 160 0
5 18 31 44 57 70 83 96 109 122 135 148 161 0
6 19 32 45 58 71 84 97 110 123 136 149 162 0
7 20 33 46 59 72 85 98 111 124 137 150 163 0
8 21 34 47 60 73 86 99 112 125 138 151 164 0
9 22 35 48 61 74 87 100 113 126 139 152 165 0
10 23 36 49 62 75 88 101 114 127 140 153 166 0
11 24 37 50 63 76 89 102 115 128 141 154 167 0
12 25 38 51 64 77 90 103 116 129 142 155 168 0
13 26 39 52 65 78 91 104 117 130 143 156 169 0
-478 170 0
-478 173 0
-479 170 0
-479 173 0
-1 478 479 0
-480 173 0
-480 180 0
-481 173 0
-481 180 0
-482 175 0
-482 178 0
-483 175 0
-483 178 0
-2 480 481 482 483 0
-484 170 0
-484 171 0
-485 170 0
-485 171 0
-486 172 0
-486 180 0
-487 172 0
-487 180 0
-488 175 0
-488 188 0
-489 175 0
-489 188 0
-3 484 485 486 487 488 489 0
-490 172 0
-490 178 0
-491 172 0
-491 178 0
-492 173 0
-492 188 0
-493 173 0
-493 188 0
-494 174 0
-494 190 0
-495 174 0
-495 190 0
-4 490 491 492 493 494 495 0
-496 176 0
-496 191 0
-497 176 0
-497 191 0
-5 496 497 0
-498 172 0
-498 175 0
-499 172 0
-499 175 0
-500 179 0
-500 191 0
-501 179 0
-501 191 0
-502 180 0
-502 188 0
-503 180 0
-503 188 0
-6 498 499 500 501 502 503 0
-504 178 0
-504 191 0
-505 178 0
-505 191 0
-506 180 0
-506 189 0
-507 180 0
-507 189 0
-508 181 0
-508 187 0
-509 181 0
-509 187 0
-7 504 505 506 507 508 509 0
-510 179 0
-510 187 0
-511 179 0
-511 187 0
-8 510 511 0
-512 183 0
-512 187 0
-513 183 0
-513 187 0
-9 512 513 0
-514 182 0
-514 187 0
-515 182 0
-515 187 0
-516 184 0
-516 191 0
-517 184 0
-517 191 0
-10 514 515 516 517 0
-518 183 0
-518 191 0
-519 183 0
-519 191 0
-11 518 519 0
-12 0
-520 179 0
-520 180 0
-521 179 0
-521 180 0
-522 188 0
-522 191 0
-523 188 0
-523 191 0
-13 520 521 522 523 0
-524 192 0
-524 195 0
-525 192 0
-525 195 0
-14 524 525 0
-526 195 0
-526 202 0
-527 195 0
-527 202 0
-528 197 0
-528 200 0
-529 197 0
-529 200 0
-15 526 527 528 529 0
-530 192 0
-530 193 0
-531 192 0
-531 193 0
-532 194 0
-532 202 0
-533 194 0
-533 202 0
-534 197 0
-534 210 0
-535 197 0
-535 210 0
-16 530 531 532 533 534 535 0
-536 194 0
-536 200 0
-537 194 0
-537 200 0
-538 195 0
-538 210 0
-539 195 0
-539 210 0
-540 196 0
-540 212 0
-541 196 0
-541 212 0
-17 536 537 538 539 540 541 0
-542 198 0
-542 213 0
-543 198 0
-543 213 0
-18 542 543 0
-544 194 0
-544 197 0
-545 194 0
-545 197 0
-546 201 0
-546 213 0
-547 201 0
-547 213 0
-548 202 0
-548 210 0
-549 202 0
-549 210 0
-19 544 545 546 547 548 549 0
-550 200 0
-550 213 0
-551 200 0
-551 213 0
-552 202 0
-552 211 0
-553 202 0
-553 211 0
-554 203 0
-554 209 0
-555 203 0
-555 209 0
-20 550 551 552 553 554 555 0
-556 201 0
-556 209 0
-557 201 0
-557 209 0
-21 556 557 0
-558 205 0
-558 209 0
-559 205 0
-559 209 0
-22 558 559 0
-560 204 0
-560 209 0
-561 204 0
-561 209 0
-562 206 0
-562 213 0
-563 206 0
-563 213 0
-23 560 561 562 563 0
-564 205 0
-564 213 0
-565 205 0
-565 213 0
-24 564 565 0
-25 0
-566 201 0
-566 202 0
-567 201 0
-567 202 0
-568 210 0
-568 213 0
-569 210 0
-569 213 0
-26 566 567 568 569 0
-570 214 0
-570 217 0
-571 214 0
-571 217 0
-27 570 571 0
-572 217 0
-572 224 0
-573 217 0
-573 224 0
-574 219 0
-574 222 0
-575 219 0
-575 222 0
-28 572 573 574 575 0
-576 214 0
-576 215 0
-577 214 0
-577 215 0
-578 216 0
-578 224 0
-579 216 0
-579 224 0
-580 219 0
-580 232 0
-581 219 0
-581 232 0
-29 576 577 578 579 580 581 0
-582 216 0
-582 222 0
-583 216 0
-583 222 0
-584 217 0
-584 232 0
-585 217 0
-585 232 0
-586 218 0
-586 234 0
-587 218 0
-587 234 0
-30 582 583 584 585 586 587 0
-588 220 0
-588 235 0
-589 220 0
-589 235 0
-31 588 589 0
-590 216 0
-590 219 0
-591 216 0
-591 219 0
-592 223 0
-592 235 0
-593 223 0
-593 235 0
-594 224 0
-594 232 0
-595 224 0
-595 232 0
-32 590 591 592 593 594 595 0
-596 222 0
-596 235 0
-597 222 0
-597 235 0
-598 224 0
-598 233 0
-599 224 0
-599 233 0
-600 225 0
-600 231 0
-601 225 0
-601 231 0
-33 596 597 598 599 600 601 0
-602 223 0
-602 231 0
-603 223 0
-603 231 0
-34 602 603 0
-604 227 0
-604 231 0
-605 227 0
-605 231 0
-35 604 605 0
-606 226 0
-606 231 0
-607 226 0
-607 231 0
-608 228 0
-608 235 0
-609 228 0
-609 235 0
-36 606 607 608 609 0
-610 227 0
-610 235 0
-611 227 0
-611 235 0
-37 610 611 0
-38 0
-612 223 0
-612 224 0
-613 223 0
-613 224 0
-614 232 0
-614 235 0
-615 232 0
-615 235 0
-39 612 613 614 615 0
-616 236 0
-616 239 0
-617 236 0
-617 239 0
-40 616 617 0
-618 239 0
-618 246 0
-619 239 0
-619 246 0
-620 241 0
-620 244 0
-621 241 0
-621 244 0
-41 618 619 620 621 0
-622 236 0
-622 237 0
-623 236 0
-623 237 0
-624 238 0
-624 246 0
-625 238 0
-625 246 0
-626 241 0
-626 254 0
-627 241 0
-627 254 0
-42 622 623 624 625 626 627 0
-628 238 0
-628 244 0
-629 238 0
-629 244 0
-630 239 0
-630 254 0
-631 239 0
-631 254 0
-632 240 0
-632 256 0
-633 240 0
-633 256 0
-43 628 629 630 631 632 633 0
-634 242 0
-634 257 0
-635 242 0
-635 257 0
-44 634 635 0
-636 238 0
-636 241 0
-637 238 0
-637 241 0
-638 245 0
-638 257 0
-639 245 0
-639 257 0
-640 246 0
-640 254 0
-641 246 0
-641 254 0
-45 636 637 638 639 640 641 0
-642 244 0
-642 257 0
-643 244 0
-643 257 0
-644 246 0
-644 255 0
-645 246 0
-645 255 0
-646 247 0
-646 253 0
-647 247 0
-647 253 0
-46 642 643 644 645 646 647 0
-648 245 0
-648 253 0
-649 245 0
-649 253 0
-47 648 649 0
-650 249 0
-650 253 0
-651 249 0
-651 253 0
-48 650 651 0
-652 248 0
-652 253 0
-653 248 0
-653 253 0
-654 250 0
-654 257 0
-655 250 0
-655 257 0
-49 652 653 654 655 0
-656 249 0
-656 257 0
-657 249 0
-657 257 0
-50 656 657 0
-51 0
-658 245 0
-658 246 0
-659 245 0
-659 246 0
-660 254 0
-660 257 0
-661 254 0
-661 257 0
-52 658 659 660 661 0
-662 258 0
-662 261 0
-663 258 0
-663 261 0
-53 662 663 0
-664 261 0
-664 268 0
-665 261 0
-665 268 0
-666 263 0
-666 266 0
-667 263 0
-667 266 0
-54 664 665 666 667 0
-668 258 0
-668 259 0
-669 258 0
-669 259 0
-670 260 0
-670 268 0
-671 260 0
-671 268 0
-672 263 0
-672 276 0
-673 263 0
-673 276 0
-55 668 669 670 671 672 673 0
-674 260 0
-674 266 0
-675 260 0
-675 266 0
-676 261 0
-676 276 0
-677 261 0
-677 276 0
-678 262 0
-678 278 0
-679 262 0
-679 278 0
-56 674 675 676 677 678 679 0
-680 264 0
-680 279 0
-681 264 0
-681 279 0
-57 680 681 0
-682 260 0
-682 263 0
-683 260 0
-683 263 0
-684 267 0
-684 279 0
-685 267 0
-685 279 0
-686 268 0
-686 276 0
-687 268 0
-687 276 0
-58 682 683 684 685 686 687 0
-688 266 0
-688 279 0
-689 266 0
-689 279 0
-690 268 0
-690 277 0
-691 268 0
-691 277 0
-692 269 0
-692 275 0
-693 269 0
-693 275 0
-59 688 689 690 691 692 693 0
-694 267 0
-694 275 0
-695 267 0
-695 275 0
-60 694 695 0
-696 271 0
-696 275 0
-697 271 0
-697 275 0
-61 696 697 0
-698 270 0
-698 275 0
-699 270 0
-699 275 0
-700 272 0
-700 279 0
-701 272 0
-701 279 0
-62 698 699 700 701 0
-702 271 0
-702 279 0
-703 271 0
-703 279 0
-63 702 703 0
-64 0
-704 267 0
-704 268 0
-705 267 0
-705 268 0
-706 276 0
-706 279 0
-707 276 0
-707 279 0
-65 704 705 706 707 0
-708 280 0
-708 283 0
-709 280 0
-709 283 0
-66 708 709 0
-710 283 0
-710 290 0
-711 283 0
-711 290 0
-712 285 0
-712 288 0
-713 285 0
-713 288 0
-67 710 711 712 713 0
-714 280 0
-714 281 0
-715 280 0
-715 281 0
-716 282 0
-716 290 0
-717 282 0
-717 290 0
-718 285 0
-718 298 0
-719 285 0
-719 298 0
-68 714 715 716 717 718 719 0
-720 282 0
-720 288 0
-721 282 0
-721 288 0
-722 283 0
-722 298 0
-723 283 0
-723 298 0
-724 284 0
-724 300 0
-725 284 0
-725 300 0
-69 720 721 722 723 724 725 0
-726 286 0
-726 301 0
-727 286 0
-727 301 0
-70 726 727 0
-728 282 0
-728 285 0
-729 282 0
-729 285 0
-730 289 0
-730 301 0
-731 289 0
-731 301 0
-732 290 0
-732 298 0
-733 290 0
-733 298 0
-71 728 729 730 731 732 733 0
-734 288 0
-734 301 0
-735 288 0
-735 301 0
-736 290 0
-736 299 0
-737 290 0
-737 299 0
-738 291 0
-738 297 0
-739 291 0
-739 297 0
-72 734 735 736 737 738 739 0
-740 289 0
-740 297 0
-741 289 0
-741 297 0
-73 740 741 0
-742 293 0
-742 297 0
-743 293 0
-743 297 0
-74 742 743 0
-744 292 0
-744 297 0
-745 292 0
-745 297 0
-746 294 0
-746 301 0
-747 294 0
-747 301 0
-75 744 745 746 747 0
-748 293 0
-748 301 0
-749 293 0
-749 301 0
-76 748 749 0
-77 0
-750 289 0
-750 290 0
-751 289 0
-751 290 0
-752 298 0
-752 301 0
-753 298 0
-753 301 0
-78 750 751 752 753 0
-754 302 0
-754 305 0
-755 302 0
-755 305 0
-79 754 755 0
-756 305 0
-756 312 0
-757 305 0
-757 312 0
-758 307 0
-758 310 0
-759 307 0
-759 310 0
-80 756 757 758 759 0
-760 302 0
-760 303 0
-761 302 0
-761 303 0
-762 304 0
-762 312 0
-763 304 0
-763 312 0
-764 307 0
-764 320 0
-765 307 0
-765 320 0
-81 760 761 762 763 764 765 0
-766 304 0
-766 310 0
-767 304 0
-767 310 0
-768 305 0
-768 320 0
-769 305 0
-769 320 0
-770 306 0
-770 322 0
-771 306 0
-771 322 0
-82 766 767 768 769 770 771 0
-772 308 0
-772 323 0
-773 308 0
-773 323 0
-83 772 773 0
-774 304 0
-774 307 0
-775 304 0
-775 307 0
-776 311 0
-776 323 0
-777 311 0
-777 323 0
-778 312 0
-778 320 0
-779 312 0
-779 320 0
-84 774 775 776 777 778 779 0
-780 310 0
-780 323 0
-781 310 0
-781 323 0
-782 312 0
-782 321 0
-783 312 0
-783 321 0
-784 313 0
-784 319 0
-785 313 0
-785 319 0
-85 780 781 782 783 784 785 0
-786 311 0
-786 319 0
-787 311 0
-787 319 0
-86 786 787 0
-788 315 0
-788 319 0
-789 315 0
-789 319 0
-87 788 789 0
-790 314 0
-790 319 0
-791 314 0
-791 319 0
-792 316 0
-792 323 0
-793 316 0
-793 323 0
-88 790 791 792 793 0
-794 315 0
-794 323 0
-795 315 0
-795 323 0
-89 794 795 0
-90 0
-796 311 0
-796 312 0
-797 311 0
-797 312 0
-798 320 0
-798 323 0
-799 320 0
-799 323 0
-91 796 797 798 799 0
-800 324 0
-800 327 0
-801 324 0
-801 327 0
-92 800 801 0
-802 327 0
-802 334 0
-803 327 0
-803 334 0
-804 329 0
-804 332 0
-805 329 0
-805 332 0
-93 802 803 804 805 0
-806 324 0
-806 325 0
-807 324 0
-807 325 0
-808 326 0
-808 334 0
-809 326 0
-809 334 0
-810 329 0
-810 342 0
-811 329 0
-811 342 0
-94 806 807 808 809 810 811 0
-812 326 0
-812 332 0
-813 326 0
-813 332 0
-814 327 0
-814 342 0
-815 327 0
-815 342 0
-816 328 0
-816 344 0
-817 328 0
-817 344 0
-95 812 813 814 815 816 817 0
-818 330 0
-818 345 0
-819 330 0
-819 345 0
-96 818 819 0
-820 326 0
-820 329 0
-821 326 0
-821 329 0
-822 333 0
-822 345 0
-823 333 0
-823 345 0
-824 334 0
-824 342 0
-825 334 0
-825 342 0
-97 820 821 822 823 824 825 0
-826 332 0
-826 345 0
-827 332 0
-827 345 0
-828 334 0
-828 343 0
-829 334 0
-829 343 0
-830 335 0
-830 341 0
-831 335 0
-831 341 0
-98 826 827 828 829 830 831 0
-832 333 0
-832 341 0
-833 333 0
-833 341 0
-99 832 833 0
-834 337 0
-834 341 0
-835 337 0
-835 341 0
-100 834 835 0
-836 336 0
-836 341 0
-837 336 0
-837 341 0
-838 338 0
-838 345 0
-839 338 0
-839 345 0
-101 836 837 838 839 0
-840 337 0
-840 345 0
-841 337 0
-841 345 0
-102 840 841 0
-103 0
-842 333 0
-842 334 0
-843 333 0
-843 334 0
-844 342 0
-844 345 0
-845 342 0
-845 345 0
-104 842 843 844 845 0
-846 346 0
-846 349 0
-847 346 0
-847 349 0
-105 846 847 0
-848 349 0
-848 356 0
-849 349 0
-849 356 0
-850 351 0
-850 354 0
-851 351 0
-851 354 0
-106 848 849 850 851 0
-852 346 0
-852 347 0
-853 346 0
-853 347 0
-854 348 0
-854 356 0
-855 348 0
-855 356 0
-856 351 0
-856 364 0
-857 351 0
-857 364 0
-107 852 853 854 855 856 857 0
-858 348 0
-858 354 0
-859 348 0
-859 354 0
-860 349 0
-860 364 0
-861 349 0
-861 364 0
-862 350 0
-862 366 0
-863 350 0
-863 366 0
-108 858 859 860 861 862 863 0
-864 352 0
-864 367 0
-865 352 0
-865 367 0
-109 864 865 0
-866 348 0
-866 351 0
-867 348 0
-867 351 0
-868 355 0
-868 367 0
-869 355 0
-869 367 0
-870 356 0
-870 364 0
-871 356 0
-871 364 0
-110 866 867 868 869 870 871 0
-872 354 0
-872 367 0
-873 354 0
-873 367 0
-874 356 0
-874 365 0
-875 356 0
-875 365 0
-876 357 0
-876 363 0
-877 357 0
-877 363 0
-111 872 873 874 875 876 877 0
-878 355 0
-878 363 0
-879 355 0
-879 363 0
-112 878 879 0
-880 359 0
-880 363 0
-881 359 0
-881 363 0
-113 880 881 0
-882 358 0
-882 363 0
-883 358 0
-883 363 0
-884 360 0
-884 367 0
-885 360 0
-885 367 0
-114 882 883 884 885 0
-886 359 0
-886 367 0
-887 359 0
-887 367 0
-115 886 887 0
-116 0
-888 355 0
-888 356 0
-889 355 0
-889 356 0
-890 364 0
-890 367 0
-891 364 0
-891 367 0
-117 888 889 890 891 0
-892 368 0
-892 371 0
-893 368 0
-893 371 0
-118 892 893 0
-894 371 0
-894 378 0
-895 371 0
-895 378 0
-896 373 0
-896 376 0
-897 373 0
-897 376 0
-119 894 895 896 897 0
-898 368 0
-898 369 0
-899 368 0
-899 369 0
-900 370 0
-900 378 0
-901 370 0
-901 378 0
-902 373 0
-902 386 0
-903 373 0
-903 386 0
-120 898 899 900 901 902 903 0
-904 370 0
-904 376 0
-905 370 0
-905 376 0
-906 371 0
-906 386 0
-907 371 0
-907 386 0
-908 372 0
-908 388 0
-909 372 0
-909 388 0
-121 904 905 906 907 908 909 0
-910 374 0
-910 389 0
-911 374 0
-911 389 0
-122 910 911 0
-912 370 0
-912 373 0
-913 370 0
-913 373 0
-914 377 0
-914 389 0
-915 377 0
-915 389 0
-916 378 0
-916 386 0
-917 378 0
-917 386 0
-123 912 913 914 915 916 917 0
-918 376 0
-918 389 0
-919 376 0
-919 389 0
-920 378 0
-920 387 0
-921 378 0
-921 387 0
-922 379 0
-922 385 0
-923 379 0
-923 385 0
-124 918 919 920 921 922 923 0
-924 377 0
-924 385 0
-925 377 0
-925 385 0
-125 924 925 0
-926 381 0
-926 385 0
-927 381 0
-927 385 0
-126 926 927 0
-928 380 0
-928 385 0
-929 380 0
-929 385 0
-930 382 0
-930 389 0
-931 382 0
-931 389 0
-127 928 929 930 931 0
-932 381 0
-932 389 0
-933 381 0
-933 389 0
-128 932 933 0
-129 0
-934 377 0
-934 378 0
-935 377 0
-935 378 0
-936 386 0
-936 389 0
-937 386 0
-937 389 0
-130 934 935 936 937 0
-938 390 0
-938 393 0
-939 390 0
-939 393 0
-131 938 939 0
-940 393 0
-940 400 0
-941 393 0
-941 400 0
-942 395 0
-942 398 0
-943 395 0
-943 398 0
-132 940 941 942 943 0
-944 390 0
-944 391 0
-945 390 0
-945 391 0
-946 392 0
-946 400 0
-947 392 0
-947 400 0
-948 395 0
-948 408 0
-949 395 0
-949 408 0
-133 944 945 946 947 948 949 0
-950 392 0
-950 398 0
-951 392 0
-951 398 0
-952 393 0
-952 408 0
-953 393 0
-953 408 0
-954 394 0
-954 410 0
-955 394 0
-955 410 0
-134 950 951 952 953 954 955 0
-956 396 0
-956 411 0
-957 396 0
-957 411 0
-135 956 957 0
-958 392 0
-958 395 0
-959 392 0
-959 395 0
-960 399 0
-960 411 0
-961 399 0
-961 411 0
-962 400 0
-962 408 0
-963 400 0
-963 408 0
-136 958 959 960 961 962 963 0
-964 398 0
-964 411 0
-965 398 0
-965 411 0
-966 400 0
-966 409 0
-967 400 0
-967 409 0
-968 401 0
-968 407 0
-969 401 0
-969 407 0
-137 964 965 966 967 968 969 0
-970 399 0
-970 407 0
-971 399 0
-971 407 0
-138 970 971 0
-972 403 0
-972 407 0
-973 403 0
-973 407 0
-139 972 973 0
-974 402 0
-974 407 0
-975 402 0
-975 407 0
-976 404 0
-976 411 0
-977 404 0
-977 411 0
-140 974 975 976 977 0
-978 403 0
-978 411 0
-979 403 0
-979 411 0
-141 978 979 0
-142 0
-980 399 0
-980 400 0
-981 399 0
-981 400 0
-982 408 0
-982 411 0
-983 408 0
-983 411 0
-143 980 981 982 983 0
-984 412 0
-984 415 0
-985 412 0
-985 415 0
-144 984 985 0
-986 415 0
-986 422 0
-987 415 0
-987 422 0
-988 417 0
-988 420 0
-989 417 0
-989 420 0
-145 986 987 988 989 0
-990 412 0
-990 413 0
-991 412 0
-991 413 0
-992 414 0
-992 422 0
-993 414 0
-993 422 0
-994 417 0
-994 430 0
-995 417 0
-995 430 0
-146 990 991 992 993 994 995 0
-996 414 0
-996 420 0
-997 414 0
-997 420 0
-998 415 0
-998 430 0
-999 415 0
-999 430 0
-1000 416 0
-1000 432 0
-1001 416 0
-1001 432 0
-147 996 997 998 999 1000 1001 0
-1002 418 0
-1002 433 0
-1003 418 0
-1003 433 0
-148 1002 1003 0
-1004 414 0
-1004 417 0
-1005 414 0
-1005 417 0
-1006 421 0
-1006 433 0
-1007 421 0
-1007 433 0
-1008 422 0
-1008 430 0
-1009 422 0
-1009 430 0
-149 1004 1005 1006 1007 1008 1009 0
-1010 420 0
-1010 433 0
-1011 420 0
-1011 433 0
-1012 422 0
-1012 431 0
-1013 422 0
-1013 431 0
-1014 423 0
-1014 429 0
-1015 423 0
-1015 429 0
-150 1010 1011 1012 1013 1014 1015 0
-1016 421 0
-1016 429 0
-1017 421 0
-1017 429 0
-151 1016 1017 0
-1018 425 0
-1018 429 0
-1019 425 0
-1019 429 0
-152 1018 1019 0
-1020 424 0
-1020 429 0
-1021 424 0
-1021 429 0
-1022 426 0
-1022 433 0
-1023 426 0
-1023 433 0
-153 1020 1021 1022 1023 0
-1024 425 0
-1024 433 0
-1025 425 0
-1025 433 0
-154 1024 1025 0
-155 0
-1026 421 0
-1026 422 0
-1027 421 0
-1027 422 0
-1028 430 0
-1028 433 0
-1029 430 0
-1029 433 0
-156 1026 1027 1028 1029 0
-1030 434 0
-1030 437 0
-1031 434 0
-1031 437 0
-157 1030 1031 0
-1032 437 0
-1032 444 0
-1033 437 0
-1033 444 0
-1034 439 0
-1034 442 0
-1035 439 0
-1035 442 0
-158 1032 1033 1034 1035 0
-1036 434 0
-1036 435 0
-1037 434 0
-1037 435 0
-1038 436 0
-1038 444 0
-1039 436 0
-1039 444 0
-1040 439 0
-1040 452 0
-1041 439 0
-1041 452 0
-159 1036 1037 1038 1039 1040 1041 0
-1042 436 0
-1042 442 0
-1043 436 0
-1043 442 0
-1044 437 0
-1044 452 0
-1045 437 0
-1045 452 0
-1046 438 0
-1046 454 0
-1047 438 0
-1047 454 0
-160 1042 1043 1044 1045 1046 1047 0
-1048 440 0
-1048 455 0
-1049 440 0
-1049 455 0
-161 1048 1049 0
-1050 436 0
-1050 439 0
-1051 436 0
-1051 439 0
-1052 443 0
-1052 455 0
-1053 443 0
-1053 455 0
-1054 444 0
-1054 452 0
-1055 444 0
-1055 452 0
-162 1050 1051 1052 1053 1054 1055 0
-1056 442 0
-1056 455 0
-1057 442 0
-1057 455 0
-1058 444 0
-1058 453 0
-1059 444 0
-1059 453 0
-1060 445 0
-1060 451 0
-1061 445 0
-1061 451 0
-163 1056 1057 1058 1059 1060 1061 0
-1062 443 0
-1062 451 0
-1063 443 0
-1063 451 0
-164 1062 1063 0
-1064 447 0
-1064 451 0
-1065 447 0
-1065 451 0
-165 1064 1065 0
-1066 446 0
-1066 451 0
-1067 446 0
-1067 451 0
-1068 448 0
-1068 455 0
-1069 448 0
-1069 455 0
-166 1066 1067 1068 1069 0
-1070 447 0
-1070 455 0
-1071 447 0
-1071 455 0
-167 1070 1071 0
-168 0
-1072 443 0
-1072 444 0
-1073 443 0
-1073 444 0
-1074 452 0
-1074 455 0
-1075 452 0
-1075 455 0
-169 1072 1073 1074 1075 0
