p cnf 780 1914
-1 -2 0
-1 -3 0
-1 -4 0
-1 -5 0
-1 -6 0
-1 -7 0
-1 -8 0
-1 -9 0
-1 -10 0
-1 -11 0
-1 -12 0
-2 -3 0
-2 -4 0
-2 -5 0
-2 -6 0
-2 -7 0
-2 -8 0
-2 -9 0
-2 -10 0
-2 -11 0
-2 -12 0
-3 -4 0
-3 -5 0
-3 -6 0
-3 -7 0
-3 -8 0
-3 -9 0
-3 -10 0
-3 -11 0
-3 -12 0
-4 -5 0
-4 -6 0
-4 -7 0
-4 -8 0
-4 -9 0
-4 -10 0
-4 -11 0
-4 -12 0
-5 -6 0
-5 -7 0
-5 -8 0
-5 -9 0
-5 -10 0
-5 -11 0
-5 -12 0
-6 -7 0
-6 -8 0
-6 -9 0
-6 -10 0
-6 -11 0
-6 -12 0
-7 -8 0
-7 -9 0
-7 -10 0
-7 -11 0
-7 -12 0
-8 -9 0
-8 -10 0
-8 -11 0
-8 -12 0
-9 -10 0
-9 -11 0
-9 -12 0
-10 -11 0
-10 -12 0
-11 -12 0
-154 133 1 0
-155 134 0
-156 135 2 0
-157 136 3 0
-158 137 4 0
-159 138 5 0
-160 139 0
-161 140 6 0
-162 141 7 0
-163 142 0
-164 143 8 0
-165 144 0
-166 145 9 0
-167 146 10 0
-168 147 11 0
-169 148 12 0
-170 149 0
-171 150 0
-172 151 0
-173 152 0
-174 153 0
-13 -14 0
-13 -15 0
-13 -16 0
-13 -17 0
-13 -18 0
-13 -19 0
-13 -20 0
-13 -21 0
-13 -22 0
-13 -23 0
-13 -24 0
-14 -15 0
-14 -16 0
-14 -17 0
-14 -18 0
-14 -19 0
-14 -20 0
-14 -21 0
-14 -22 0
-14 -23 0
-14 -24 0
-15 -16 0
-15 -17 0
-15 -18 0
-15 -19 0
-15 -20 0
-15 -21 0
-15 -22 0
-15 -23 0
-15 -24 0
-16 -17 0
-16 -18 0
-16 -19 0
-16 -20 0
-16 -21 0
-16 -22 0
-16 -23 0
-16 -24 0
-17 -18 0
-17 -19 0
-17 -20 0
-17 -21 0
-17 -22 0
-17 -23 0
-17 -24 0
-18 -19 0
-18 -20 0
-18 -21 0
-18 -22 0
-18 -23 0
-18 -24 0
-19 -20 0
-19 -21 0
-19 -22 0
-19 -23 0
-19 -24 0
-20 -21 0
-20 -22 0
-20 -23 0
-20 -24 0
-21 -22 0
-21 -23 0
-21 -24 0
-22 -23 0
-22 -24 0
-23 -24 0
-175 154 13 0
-176 155 0
-177 156 14 0
-178 157 15 0
-179 158 16 0
-180 159 17 0
-181 160 0
-182 161 18 0
-183 162 19 0
-184 163 0
-185 164 20 0
-186 165 0
-187 166 21 0
-188 167 22 0
-189 168 23 0
-190 169 24 0
-191 170 0
-192 171 0
-193 172 0
-194 173 0
-195 174 0
-25 -26 0
-25 -27 0
-25 -28 0
-25 -29 0
-25 -30 0
-25 -31 0
-25 -32 0
-25 -33 0
-25 -34 0
-25 -35 0
-25 -36 0
-26 -27 0
-26 -28 0
-26 -29 0
-26 -30 0
-26 -31 0
-26 -32 0
-26 -33 0
-26 -34 0
-26 -35 0
-26 -36 0
-27 -28 0
-27 -29 0
-27 -30 0
-27 -31 0
-27 -32 0
-27 -33 0
-27 -34 0
-27 -35 0
-27 -36 0
-28 -29 0
-28 -30 0
-28 -31 0
-28 -32 0
-28 -33 0
-28 -34 0
-28 -35 0
-28 -36 0
-29 -30 0
-29 -31 0
-29 -32 0
-29 -33 0
-29 -34 0
-29 -35 0
-29 -36 0
-30 -31 0
-30 -32 0
-30 -33 0
-30 -34 0
-30 -35 0
-30 -36 0
-31 -32 0
-31 -33 0
-31 -34 0
-31 -35 0
-31 -36 0
-32 -33 0
-32 -34 0
-32 -35 0
-32 -36 0
-33 -34 0
-33 -35 0
-33 -36 0
-34 -35 0
-34 -36 0
-35 -36 0
-196 175 25 0
-197 176 0
-198 177 26 0
-199 178 27 0
-200 179 28 0
-201 180 29 0
-202 181 0
-203 182 30 0
-204 183 31 0
-205 184 0
-206 185 32 0
-207 186 0
-208 187 33 0
-209 188 34 0
-210 189 35 0
-211 190 36 0
-212 191 0
-213 192 0
-214 193 0
-215 194 0
-216 195 0
-37 -38 0
-37 -39 0
-37 -40 0
-37 -41 0
-37 -42 0
-37 -43 0
-37 -44 0
-37 -45 0
-37 -46 0
-37 -47 0
-37 -48 0
-38 -39 0
-38 -40 0
-38 -41 0
-38 -42 0
-38 -43 0
-38 -44 0
-38 -45 0
-38 -46 0
-38 -47 0
-38 -48 0
-39 -40 0
-39 -41 0
-39 -42 0
-39 -43 0
-39 -44 0
-39 -45 0
-39 -46 0
-39 -47 0
-39 -48 0
-40 -41 0
-40 -42 0
-40 -43 0
-40 -44 0
-40 -45 0
-40 -46 0
-40 -47 0
-40 -48 0
-41 -42 0
-41 -43 0
-41 -44 0
-41 -45 0
-41 -46 0
-41 -47 0
-41 -48 0
-42 -43 0
-42 -44 0
-42 -45 0
-42 -46 0
-42 -47 0
-42 -48 0
-43 -44 0
-43 -45 0
-43 -46 0
-43 -47 0
-43 -48 0
-44 -45 0
-44 -46 0
-44 -47 0
-44 -48 0
-45 -46 0
-45 -47 0
-45 -48 0
-46 -47 0
-46 -48 0
-47 -48 0
-217 196 37 0
-218 197 0
-219 198 38 0
-220 199 39 0
-221 200 40 0
-222 201 41 0
-223 202 0
-224 203 42 0
-225 204 43 0
-226 205 0
-227 206 44 0
-228 207 0
-229 208 45 0
-230 209 46 0
-231 210 47 0
-232 211 48 0
-233 212 0
-234 213 0
-235 214 0
-236 215 0
-237 216 0
-49 -50 0
-49 -51 0
-49 -52 0
-49 -53 0
-49 -54 0
-49 -55 0
-49 -56 0
-49 -57 0
-49 -58 0
-49 -59 0
-49 -60 0
-50 -51 0
-50 -52 0
-50 -53 0
-50 -54 0
-50 -55 0
-50 -56 0
-50 -57 0
-50 -58 0
-50 -59 0
-50 -60 0
-51 -52 0
-51 -53 0
-51 -54 0
-51 -55 0
-51 -56 0
-51 -57 0
-51 -58 0
-51 -59 0
-51 -60 0
-52 -53 0
-52 -54 0
-52 -55 0
-52 -56 0
-52 -57 0
-52 -58 0
-52 -59 0
-52 -60 0
-53 -54 0
-53 -55 0
-53 -56 0
-53 -57 0
-53 -58 0
-53 -59 0
-53 -60 0
-54 -55 0
-54 -56 0
-54 -57 0
-54 -58 0
-54 -59 0
-54 -60 0
-55 -56 0
-55 -57 0
-55 -58 0
-55 -59 0
-55 -60 0
-56 -57 0
-56 -58 0
-56 -59 0
-56 -60 0
-57 -58 0
-57 -59 0
-57 -60 0
-58 -59 0
-58 -60 0
-59 -60 0
-238 217 49 0
-239 218 0
-240 219 50 0
-241 220 51 0
-242 221 52 0
-243 222 53 0
-244 223 0
-245 224 54 0
-246 225 55 0
-247 226 0
-248 227 56 0
-249 228 0
-250 229 57 0
-251 230 58 0
-252 231 59 0
-253 232 60 0
-254 233 0
-255 234 0
-256 235 0
-257 236 0
-258 237 0
-61 -62 0
-61 -63 0
-61 -64 0
-61 -65 0
-61 -66 0
-61 -67 0
-61 -68 0
-61 -69 0
-61 -70 0
-61 -71 0
-61 -72 0
-62 -63 0
-62 -64 0
-62 -65 0
-62 -66 0
-62 -67 0
-62 -68 0
-62 -69 0
-62 -70 0
-62 -71 0
-62 -72 0
-63 -64 0
-63 -65 0
-63 -66 0
-63 -67 0
-63 -68 0
-63 -69 0
-63 -70 0
-63 -71 0
-63 -72 0
-64 -65 0
-64 -66 0
-64 -67 0
-64 -68 0
-64 -69 0
-64 -70 0
-64 -71 0
-64 -72 0
-65 -66 0
-65 -67 0
-65 -68 0
-65 -69 0
-65 -70 0
-65 -71 0
-65 -72 0
-66 -67 0
-66 -68 0
-66 -69 0
-66 -70 0
-66 -71 0
-66 -72 0
-67 -68 0
-67 -69 0
-67 -70 0
-67 -71 0
-67 -72 0
-68 -69 0
-68 -70 0
-68 -71 0
-68 -72 0
-69 -70 0
-69 -71 0
-69 -72 0
-70 -71 0
-70 -72 0
-71 -72 0
-259 238 61 0
-260 239 0
-261 240 62 0
-262 241 63 0
-263 242 64 0
-264 243 65 0
-265 244 0
-266 245 66 0
-267 246 67 0
-268 247 0
-269 248 68 0
-270 249 0
-271 250 69 0
-272 251 70 0
-273 252 71 0
-274 253 72 0
-275 254 0
-276 255 0
-277 256 0
-278 257 0
-279 258 0
-73 -74 0
-73 -75 0
-73 -76 0
-73 -77 0
-73 -78 0
-73 -79 0
-73 -80 0
-73 -81 0
-73 -82 0
-73 -83 0
-73 -84 0
-74 -75 0
-74 -76 0
-74 -77 0
-74 -78 0
-74 -79 0
-74 -80 0
-74 -81 0
-74 -82 0
-74 -83 0
-74 -84 0
-75 -76 0
-75 -77 0
-75 -78 0
-75 -79 0
-75 -80 0
-75 -81 0
-75 -82 0
-75 -83 0
-75 -84 0
-76 -77 0
-76 -78 0
-76 -79 0
-76 -80 0
-76 -81 0
-76 -82 0
-76 -83 0
-76 -84 0
-77 -78 0
-77 -79 0
-77 -80 0
-77 -81 0
-77 -82 0
-77 -83 0
-77 -84 0
-78 -79 0
-78 -80 0
-78 -81 0
-78 -82 0
-78 -83 0
-78 -84 0
-79 -80 0
-79 -81 0
-79 -82 0
-79 -83 0
-79 -84 0
-80 -81 0
-80 -82 0
-80 -83 0
-80 -84 0
-81 -82 0
-81 -83 0
-81 -84 0
-82 -83 0
-82 -84 0
-83 -84 0
-280 259 73 0
-281 260 0
-282 261 74 0
-283 262 75 0
-284 263 76 0
-285 264 77 0
-286 265 0
-287 266 78 0
-288 267 79 0
-289 268 0
-290 269 80 0
-291 270 0
-292 271 81 0
-293 272 82 0
-294 273 83 0
-295 274 84 0
-296 275 0
-297 276 0
-298 277 0
-299 278 0
-300 279 0
-85 -86 0
-85 -87 0
-85 -88 0
-85 -89 0
-85 -90 0
-85 -91 0
-85 -92 0
-85 -93 0
-85 -94 0
-85 -95 0
-85 -96 0
-86 -87 0
-86 -88 0
-86 -89 0
-86 -90 0
-86 -91 0
-86 -92 0
-86 -93 0
-86 -94 0
-86 -95 0
-86 -96 0
-87 -88 0
-87 -89 0
-87 -90 0
-87 -91 0
-87 -92 0
-87 -93 0
-87 -94 0
-87 -95 0
-87 -96 0
-88 -89 0
-88 -90 0
-88 -91 0
-88 -92 0
-88 -93 0
-88 -94 0
-88 -95 0
-88 -96 0
-89 -90 0
-89 -91 0
-89 -92 0
-89 -93 0
-89 -94 0
-89 -95 0
-89 -96 0
-90 -91 0
-90 -92 0
-90 -93 0
-90 -94 0
-90 -95 0
-90 -96 0
-91 -92 0
-91 -93 0
-91 -94 0
-91 -95 0
-91 -96 0
-92 -93 0
-92 -94 0
-92 -95 0
-92 -96 0
-93 -94 0
-93 -95 0
-93 -96 0
-94 -95 0
-94 -96 0
-95 -96 0
-301 280 85 0
-302 281 0
-303 282 86 0
-304 283 87 0
-305 284 88 0
-306 285 89 0
-307 286 0
-308 287 90 0
-309 288 91 0
-310 289 0
-311 290 92 0
-312 291 0
-313 292 93 0
-314 293 94 0
-315 294 95 0
-316 295 96 0
-317 296 0
-318 297 0
-319 298 0
-320 299 0
-321 300 0
-97 -98 0
-97 -99 0
-97 -100 0
-97 -101 0
-97 -102 0
-97 -103 0
-97 -104 0
-97 -105 0
-97 -106 0
-97 -107 0
-97 -108 0
-98 -99 0
-98 -100 0
-98 -101 0
-98 -102 0
-98 -103 0
-98 -104 0
-98 -105 0
-98 -106 0
-98 -107 0
-98 -108 0
-99 -100 0
-99 -101 0
-99 -102 0
-99 -103 0
-99 -104 0
-99 -105 0
-99 -106 0
-99 -107 0
-99 -108 0
-100 -101 0
-100 -102 0
-100 -103 0
-100 -104 0
-100 -105 0
-100 -106 0
-100 -107 0
-100 -108 0
-101 -102 0
-101 -103 0
-101 -104 0
-101 -105 0
-101 -106 0
-101 -107 0
-101 -108 0
-102 -103 0
-102 -104 0
-102 -105 0
-102 -106 0
-102 -107 0
-102 -108 0
-103 -104 0
-103 -105 0
-103 -106 0
-103 -107 0
-103 -108 0
-104 -105 0
-104 -106 0
-104 -107 0
-104 -108 0
-105 -106 0
-105 -107 0
-105 -108 0
-106 -107 0
-106 -108 0
-107 -108 0
-322 301 97 0
-323 302 0
-324 303 98 0
-325 304 99 0
-326 305 100 0
-327 306 101 0
-328 307 0
-329 308 102 0
-330 309 103 0
-331 310 0
-332 311 104 0
-333 312 0
-334 313 105 0
-335 314 106 0
-336 315 107 0
-337 316 108 0
-338 317 0
-339 318 0
-340 319 0
-341 320 0
-342 321 0
-109 -110 0
-109 -111 0
-109 -112 0
-109 -113 0
-109 -114 0
-109 -115 0
-109 -116 0
-109 -117 0
-109 -118 0
-109 -119 0
-109 -120 0
-110 -111 0
-110 -112 0
-110 -113 0
-110 -114 0
-110 -115 0
-110 -116 0
-110 -117 0
-110 -118 0
-110 -119 0
-110 -120 0
-111 -112 0
-111 -113 0
-111 -114 0
-111 -115 0
-111 -116 0
-111 -117 0
-111 -118 0
-111 -119 0
-111 -120 0
-112 -113 0
-112 -114 0
-112 -115 0
-112 -116 0
-112 -117 0
-112 -118 0
-112 -119 0
-112 -120 0
-113 -114 0
-113 -115 0
-113 -116 0
-113 -117 0
-113 -118 0
-113 -119 0
-113 -120 0
-114 -115 0
-114 -116 0
-114 -117 0
-114 -118 0
-114 -119 0
-114 -120 0
-115 -116 0
-115 -117 0
-115 -118 0
-115 -119 0
-115 -120 0
-116 -117 0
-116 -118 0
-116 -119 0
-116 -120 0
-117 -118 0
-117 -119 0
-117 -120 0
-118 -119 0
-118 -120 0
-119 -120 0
-343 322 109 0
-344 323 0
-345 324 110 0
-346 325 111 0
-347 326 112 0
-348 327 113 0
-349 328 0
-350 329 114 0
-351 330 115 0
-352 331 0
-353 332 116 0
-354 333 0
-355 334 117 0
-356 335 118 0
-357 336 119 0
-358 337 120 0
-359 338 0
-360 339 0
-361 340 0
-362 341 0
-363 342 0
-121 -122 0
-121 -123 0
-121 -124 0
-121 -125 0
-121 -126 0
-121 -127 0
-121 -128 0
-121 -129 0
-121 -130 0
-121 -131 0
-121 -132 0
-122 -123 0
-122 -124 0
-122 -125 0
-122 -126 0
-122 -127 0
-122 -128 0
-122 -129 0
-122 -130 0
-122 -131 0
-122 -132 0
-123 -124 0
-123 -125 0
-123 -126 0
-123 -127 0
-123 -128 0
-123 -129 0
-123 -130 0
-123 -131 0
-123 -132 0
-124 -125 0
-124 -126 0
-124 -127 0
-124 -128 0
-124 -129 0
-124 -130 0
-124 -131 0
-124 -132 0
-125 -126 0
-125 -127 0
-125 -128 0
-125 -129 0
-125 -130 0
-125 -131 0
-125 -132 0
-126 -127 0
-126 -128 0
-126 -129 0
-126 -130 0
-126 -131 0
-126 -132 0
-127 -128 0
-127 -129 0
-127 -130 0
-127 -131 0
-127 -132 0
-128 -129 0
-128 -130 0
-128 -131 0
-128 -132 0
-129 -130 0
-129 -131 0
-129 -132 0
-130 -131 0
-130 -132 0
-131 -132 0
-364 343 121 0
-365 344 0
-366 345 122 0
-367 346 123 0
-368 347 124 0
-369 348 125 0
-370 349 0
-371 350 126 0
-372 351 127 0
-373 352 0
-374 353 128 0
-375 354 0
-376 355 129 0
-377 356 130 0
-378 357 131 0
-379 358 132 0
-380 359 0
-381 360 0
-382 361 0
-383 362 0
-384 363 0
-133 0
134 0
-135 0
-136 0
-137 0
-138 0
139 0
-140 0
-141 0
142 0
-143 0
144 0
-145 0
-146 0
-147 0
-148 0
149 0
150 0
151 0
152 0
153 0
1 13 25 37 49 61 73 85 97 109 121 0
2 14 26 38 50 62 74 86 98 110 122 0
3 15 27 39 51 63 75 87 99 111 123 0
4 16 28 40 52 64 76 88 100 112 124 0
5 17 29 41 53 65 77 89 101 113 125 0
6 18 30 42 54 66 78 90 102 114 126 0
7 19 31 43 55 67 79 91 103 115 127 0
8 20 32 44 56 68 80 92 104 116 128 0
9 21 33 45 57 69 81 93 105 117 129 0
10 22 34 46 58 70 82 94 106 118 130 0
11 23 35 47 59 71 83 95 107 119 131 0
12 24 36 48 60 72 84 96 108 120 132 0
-385 134 0
-385 137 0
-386 134 0
-386 137 0
-1 385 386 0
-2 0
-387 137 0
-387 152 0
-388 137 0
-388 152 0
-3 387 388 0
-389 133 0
-389 134 0
-390 133 0
-390 134 0
-391 136 0
-391 152 0
-392 136 0
-392 152 0
-393 138 0
-393 151 0
-394 138 0
-394 151 0
-395 139 0
-395 140 0
-396 139 0
-396 140 0
-4 389 390 391 392 393 394 395 396 0
-397 137 0
-397 151 0
-398 137 0
-398 151 0
-5 397 398 0
-399 137 0
-399 139 0
-400 137 0
-400 139 0
-401 141 0
-401 149 0
-402 141 0
-402 149 0
-403 142 0
-403 146 0
-404 142 0
-404 146 0
-6 399 400 401 402 403 404 0
-405 140 0
-405 149 0
-406 140 0
-406 149 0
-407 142 0
-407 150 0
-408 142 0
-408 150 0
-409 143 0
-409 144 0
-410 143 0
-410 144 0
-7 405 406 407 408 409 410 0
-411 141 0
-411 144 0
-412 141 0
-412 144 0
-8 411 412 0
-9 0
-413 140 0
-413 142 0
-414 140 0
-414 142 0
-415 147 0
-415 153 0
-416 147 0
-416 153 0
-417 149 0
-417 150 0
-418 149 0
-418 150 0
-10 413 414 415 416 417 418 0
-419 146 0
-419 153 0
-420 146 0
-420 153 0
-11 419 420 0
-12 0
-421 155 0
-421 158 0
-422 155 0
-422 158 0
-13 421 422 0
-14 0
-423 158 0
-423 173 0
-424 158 0
-424 173 0
-15 423 424 0
-425 154 0
-425 155 0
-426 154 0
-426 155 0
-427 157 0
-427 173 0
-428 157 0
-428 173 0
-429 159 0
-429 172 0
-430 159 0
-430 172 0
-431 160 0
-431 161 0
-432 160 0
-432 161 0
-16 425 426 427 428 429 430 431 432 0
-433 158 0
-433 172 0
-434 158 0
-434 172 0
-17 433 434 0
-435 158 0
-435 160 0
-436 158 0
-436 160 0
-437 162 0
-437 170 0
-438 162 0
-438 170 0
-439 163 0
-439 167 0
-440 163 0
-440 167 0
-18 435 436 437 438 439 440 0
-441 161 0
-441 170 0
-442 161 0
-442 170 0
-443 163 0
-443 171 0
-444 163 0
-444 171 0
-445 164 0
-445 165 0
-446 164 0
-446 165 0
-19 441 442 443 444 445 446 0
-447 162 0
-447 165 0
-448 162 0
-448 165 0
-20 447 448 0
-21 0
-449 161 0
-449 163 0
-450 161 0
-450 163 0
-451 168 0
-451 174 0
-452 168 0
-452 174 0
-453 170 0
-453 171 0
-454 170 0
-454 171 0
-22 449 450 451 452 453 454 0
-455 167 0
-455 174 0
-456 167 0
-456 174 0
-23 455 456 0
-24 0
-457 176 0
-457 179 0
-458 176 0
-458 179 0
-25 457 458 0
-26 0
-459 179 0
-459 194 0
-460 179 0
-460 194 0
-27 459 460 0
-461 175 0
-461 176 0
-462 175 0
-462 176 0
-463 178 0
-463 194 0
-464 178 0
-464 194 0
-465 180 0
-465 193 0
-466 180 0
-466 193 0
-467 181 0
-467 182 0
-468 181 0
-468 182 0
-28 461 462 463 464 465 466 467 468 0
-469 179 0
-469 193 0
-470 179 0
-470 193 0
-29 469 470 0
-471 179 0
-471 181 0
-472 179 0
-472 181 0
-473 183 0
-473 191 0
-474 183 0
-474 191 0
-475 184 0
-475 188 0
-476 184 0
-476 188 0
-30 471 472 473 474 475 476 0
-477 182 0
-477 191 0
-478 182 0
-478 191 0
-479 184 0
-479 192 0
-480 184 0
-480 192 0
-481 185 0
-481 186 0
-482 185 0
-482 186 0
-31 477 478 479 480 481 482 0
-483 183 0
-483 186 0
-484 183 0
-484 186 0
-32 483 484 0
-33 0
-485 182 0
-485 184 0
-486 182 0
-486 184 0
-487 189 0
-487 195 0
-488 189 0
-488 195 0
-489 191 0
-489 192 0
-490 191 0
-490 192 0
-34 485 486 487 488 489 490 0
-491 188 0
-491 195 0
-492 188 0
-492 195 0
-35 491 492 0
-36 0
-493 197 0
-493 200 0
-494 197 0
-494 200 0
-37 493 494 0
-38 0
-495 200 0
-495 215 0
-496 200 0
-496 215 0
-39 495 496 0
-497 196 0
-497 197 0
-498 196 0
-498 197 0
-499 199 0
-499 215 0
-500 199 0
-500 215 0
-501 201 0
-501 214 0
-502 201 0
-502 214 0
-503 202 0
-503 203 0
-504 202 0
-504 203 0
-40 497 498 499 500 501 502 503 504 0
-505 200 0
-505 214 0
-506 200 0
-506 214 0
-41 505 506 0
-507 200 0
-507 202 0
-508 200 0
-508 202 0
-509 204 0
-509 212 0
-510 204 0
-510 212 0
-511 205 0
-511 209 0
-512 205 0
-512 209 0
-42 507 508 509 510 511 512 0
-513 203 0
-513 212 0
-514 203 0
-514 212 0
-515 205 0
-515 213 0
-516 205 0
-516 213 0
-517 206 0
-517 207 0
-518 206 0
-518 207 0
-43 513 514 515 516 517 518 0
-519 204 0
-519 207 0
-520 204 0
-520 207 0
-44 519 520 0
-45 0
-521 203 0
-521 205 0
-522 203 0
-522 205 0
-523 210 0
-523 216 0
-524 210 0
-524 216 0
-525 212 0
-525 213 0
-526 212 0
-526 213 0
-46 521 522 523 524 525 526 0
-527 209 0
-527 216 0
-528 209 0
-528 216 0
-47 527 528 0
-48 0
-529 218 0
-529 221 0
-530 218 0
-530 221 0
-49 529 530 0
-50 0
-531 221 0
-531 236 0
-532 221 0
-532 236 0
-51 531 532 0
-533 217 0
-533 218 0
-534 217 0
-534 218 0
-535 220 0
-535 236 0
-536 220 0
-536 236 0
-537 222 0
-537 235 0
-538 222 0
-538 235 0
-539 223 0
-539 224 0
-540 223 0
-540 224 0
-52 533 534 535 536 537 538 539 540 0
-541 221 0
-541 235 0
-542 221 0
-542 235 0
-53 541 542 0
-543 221 0
-543 223 0
-544 221 0
-544 223 0
-545 225 0
-545 233 0
-546 225 0
-546 233 0
-547 226 0
-547 230 0
-548 226 0
-548 230 0
-54 543 544 545 546 547 548 0
-549 224 0
-549 233 0
-550 224 0
-550 233 0
-551 226 0
-551 234 0
-552 226 0
-552 234 0
-553 227 0
-553 228 0
-554 227 0
-554 228 0
-55 549 550 551 552 553 554 0
-555 225 0
-555 228 0
-556 225 0
-556 228 0
-56 555 556 0
-57 0
-557 224 0
-557 226 0
-558 224 0
-558 226 0
-559 231 0
-559 237 0
-560 231 0
-560 237 0
-561 233 0
-561 234 0
-562 233 0
-562 234 0
-58 557 558 559 560 561 562 0
-563 230 0
-563 237 0
-564 230 0
-564 237 0
-59 563 564 0
-60 0
-565 239 0
-565 242 0
-566 239 0
-566 242 0
-61 565 566 0
-62 0
-567 242 0
-567 257 0
-568 242 0
-568 257 0
-63 567 568 0
-569 238 0
-569 239 0
-570 238 0
-570 239 0
-571 241 0
-571 257 0
-572 241 0
-572 257 0
-573 243 0
-573 256 0
-574 243 0
-574 256 0
-575 244 0
-575 245 0
-576 244 0
-576 245 0
-64 569 570 571 572 573 574 575 576 0
-577 242 0
-577 256 0
-578 242 0
-578 256 0
-65 577 578 0
-579 242 0
-579 244 0
-580 242 0
-580 244 0
-581 246 0
-581 254 0
-582 246 0
-582 254 0
-583 247 0
-583 251 0
-584 247 0
-584 251 0
-66 579 580 581 582 583 584 0
-585 245 0
-585 254 0
-586 245 0
-586 254 0
-587 247 0
-587 255 0
-588 247 0
-588 255 0
-589 248 0
-589 249 0
-590 248 0
-590 249 0
-67 585 586 587 588 589 590 0
-591 246 0
-591 249 0
-592 246 0
-592 249 0
-68 591 592 0
-69 0
-593 245 0
-593 247 0
-594 245 0
-594 247 0
-595 252 0
-595 258 0
-596 252 0
-596 258 0
-597 254 0
-597 255 0
-598 254 0
-598 255 0
-70 593 594 595 596 597 598 0
-599 251 0
-599 258 0
-600 251 0
-600 258 0
-71 599 600 0
-72 0
-601 260 0
-601 263 0
-602 260 0
-602 263 0
-73 601 602 0
-74 0
-603 263 0
-603 278 0
-604 263 0
-604 278 0
-75 603 604 0
-605 259 0
-605 260 0
-606 259 0
-606 260 0
-607 262 0
-607 278 0
-608 262 0
-608 278 0
-609 264 0
-609 277 0
-610 264 0
-610 277 0
-611 265 0
-611 266 0
-612 265 0
-612 266 0
-76 605 606 607 608 609 610 611 612 0
-613 263 0
-613 277 0
-614 263 0
-614 277 0
-77 613 614 0
-615 263 0
-615 265 0
-616 263 0
-616 265 0
-617 267 0
-617 275 0
-618 267 0
-618 275 0
-619 268 0
-619 272 0
-620 268 0
-620 272 0
-78 615 616 617 618 619 620 0
-621 266 0
-621 275 0
-622 266 0
-622 275 0
-623 268 0
-623 276 0
-624 268 0
-624 276 0
-625 269 0
-625 270 0
-626 269 0
-626 270 0
-79 621 622 623 624 625 626 0
-627 267 0
-627 270 0
-628 267 0
-628 270 0
-80 627 628 0
-81 0
-629 266 0
-629 268 0
-630 266 0
-630 268 0
-631 273 0
-631 279 0
-632 273 0
-632 279 0
-633 275 0
-633 276 0
-634 275 0
-634 276 0
-82 629 630 631 632 633 634 0
-635 272 0
-635 279 0
-636 272 0
-636 279 0
-83 635 636 0
-84 0
-637 281 0
-637 284 0
-638 281 0
-638 284 0
-85 637 638 0
-86 0
-639 284 0
-639 299 0
-640 284 0
-640 299 0
-87 639 640 0
-641 280 0
-641 281 0
-642 280 0
-642 281 0
-643 283 0
-643 299 0
-644 283 0
-644 299 0
-645 285 0
-645 298 0
-646 285 0
-646 298 0
-647 286 0
-647 287 0
-648 286 0
-648 287 0
-88 641 642 643 644 645 646 647 648 0
-649 284 0
-649 298 0
-650 284 0
-650 298 0
-89 649 650 0
-651 284 0
-651 286 0
-652 284 0
-652 286 0
-653 288 0
-653 296 0
-654 288 0
-654 296 0
-655 289 0
-655 293 0
-656 289 0
-656 293 0
-90 651 652 653 654 655 656 0
-657 287 0
-657 296 0
-658 287 0
-658 296 0
-659 289 0
-659 297 0
-660 289 0
-660 297 0
-661 290 0
-661 291 0
-662 290 0
-662 291 0
-91 657 658 659 660 661 662 0
-663 288 0
-663 291 0
-664 288 0
-664 291 0
-92 663 664 0
-93 0
-665 287 0
-665 289 0
-666 287 0
-666 289 0
-667 294 0
-667 300 0
-668 294 0
-668 300 0
-669 296 0
-669 297 0
-670 296 0
-670 297 0
-94 665 666 667 668 669 670 0
-671 293 0
-671 300 0
-672 293 0
-672 300 0
-95 671 672 0
-96 0
-673 302 0
-673 305 0
-674 302 0
-674 305 0
-97 673 674 0
-98 0
-675 305 0
-675 320 0
-676 305 0
-676 320 0
-99 675 676 0
-677 301 0
-677 302 0
-678 301 0
-678 302 0
-679 304 0
-679 320 0
-680 304 0
-680 320 0
-681 306 0
-681 319 0
-682 306 0
-682 319 0
-683 307 0
-683 308 0
-684 307 0
-684 308 0
-100 677 678 679 680 681 682 683 684 0
-685 305 0
-685 319 0
-686 305 0
-686 319 0
-101 685 686 0
-687 305 0
-687 307 0
-688 305 0
-688 307 0
-689 309 0
-689 317 0
-690 309 0
-690 317 0
-691 310 0
-691 314 0
-692 310 0
-692 314 0
-102 687 688 689 690 691 692 0
-693 308 0
-693 317 0
-694 308 0
-694 317 0
-695 310 0
-695 318 0
-696 310 0
-696 318 0
-697 311 0
-697 312 0
-698 311 0
-698 312 0
-103 693 694 695 696 697 698 0
-699 309 0
-699 312 0
-700 309 0
-700 312 0
-104 699 700 0
-105 0
-701 308 0
-701 310 0
-702 308 0
-702 310 0
-703 315 0
-703 321 0
-704 315 0
-704 321 0
-705 317 0
-705 318 0
-706 317 0
-706 318 0
-106 701 702 703 704 705 706 0
-707 314 0
-707 321 0
-708 314 0
-708 321 0
-107 707 708 0
-108 0
-709 323 0
-709 326 0
-710 323 0
-710 326 0
-109 709 710 0
-110 0
-711 326 0
-711 341 0
-712 326 0
-712 341 0
-111 711 712 0
-713 322 0
-713 323 0
-714 322 0
-714 323 0
-715 325 0
-715 341 0
-716 325 0
-716 341 0
-717 327 0
-717 340 0
-718 327 0
-718 340 0
-719 328 0
-719 329 0
-720 328 0
-720 329 0
-112 713 714 715 716 717 718 719 720 0
-721 326 0
-721 340 0
-722 326 0
-722 340 0
-113 721 722 0
-723 326 0
-723 328 0
-724 326 0
-724 328 0
-725 330 0
-725 338 0
-726 330 0
-726 338 0
-727 331 0
-727 335 0
-728 331 0
-728 335 0
-114 723 724 725 726 727 728 0
-729 329 0
-729 338 0
-730 329 0
-730 338 0
-731 331 0
-731 339 0
-732 331 0
-732 339 0
-733 332 0
-733 333 0
-734 332 0
-734 333 0
-115 729 730 731 732 733 734 0
-735 330 0
-735 333 0
-736 330 0
-736 333 0
-116 735 736 0
-117 0
-737 329 0
-737 331 0
-738 329 0
-738 331 0
-739 336 0
-739 342 0
-740 336 0
-740 342 0
-741 338 0
-741 339 0
-742 338 0
-742 339 0
-118 737 738 739 740 741 742 0
-743 335 0
-743 342 0
-744 335 0
-744 342 0
-119 743 744 0
-120 0
-745 344 0
-745 347 0
-746 344 0
-746 347 0
-121 745 746 0
-122 0
-747 347 0
-747 362 0
-748 347 0
-748 362 0
-123 747 748 0
-749 343 0
-749 344 0
-750 343 0
-750 344 0
-751 346 0
-751 362 0
-752 346 0
-752 362 0
-753 348 0
-753 361 0
-754 348 0
-754 361 0
-755 349 0
-755 350 0
-756 349 0
-756 350 0
-124 749 750 751 752 753 754 755 756 0
-757 347 0
-757 361 0
-758 347 0
-758 361 0
-125 757 758 0
-759 347 0
-759 349 0
-760 347 0
-760 349 0
-761 351 0
-761 359 0
-762 351 0
-762 359 0
-763 352 0
-763 356 0
-764 352 0
-764 356 0
-126 759 760 761 762 763 764 0
-765 350 0
-765 359 0
-766 350 0
-766 359 0
-767 352 0
-767 360 0
-768 352 0
-768 360 0
-769 353 0
-769 354 0
-770 353 0
-770 354 0
-127 765 766 767 768 769 770 0
-771 351 0
-771 354 0
-772 351 0
-772 354 0
-128 771 772 0
-129 0
-773 350 0
-773 352 0
-774 350 0
-774 352 0
-775 357 0
-775 363 0
-776 357 0
-776 363 0
-777 359 0
-777 360 0
-778 359 0
-778 360 0
-130 773 774 775 776 777 778 0
-779 356 0
-779 363 0
-780 356 0
-780 363 0
-131 779 780 0
-132 0
