p cnf 1199 3145
-1 -2 0
-1 -3 0
-1 -4 0
-1 -5 0
-1 -6 0
-1 -7 0
-1 -8 0
-1 -9 0
-1 -10 0
-1 -11 0
-1 -12 0
-1 -13 0
-1 -14 0
-2 -3 0
-2 -4 0
-2 -5 0
-2 -6 0
-2 -7 0
-2 -8 0
-2 -9 0
-2 -10 0
-2 -11 0
-2 -12 0
-2 -13 0
-2 -14 0
-3 -4 0
-3 -5 0
-3 -6 0
-3 -7 0
-3 -8 0
-3 -9 0
-3 -10 0
-3 -11 0
-3 -12 0
-3 -13 0
-3 -14 0
-4 -5 0
-4 -6 0
-4 -7 0
-4 -8 0
-4 -9 0
-4 -10 0
-4 -11 0
-4 -12 0
-4 -13 0
-4 -14 0
-5 -6 0
-5 -7 0
-5 -8 0
-5 -9 0
-5 -10 0
-5 -11 0
-5 -12 0
-5 -13 0
-5 -14 0
-6 -7 0
-6 -8 0
-6 -9 0
-6 -10 0
-6 -11 0
-6 -12 0
-6 -13 0
-6 -14 0
-7 -8 0
-7 -9 0
-7 -10 0
-7 -11 0
-7 -12 0
-7 -13 0
-7 -14 0
-8 -9 0
-8 -10 0
-8 -11 0
-8 -12 0
-8 -13 0
-8 -14 0
-9 -10 0
-9 -11 0
-9 -12 0
-9 -13 0
-9 -14 0
-10 -11 0
-10 -12 0
-10 -13 0
-10 -14 0
-11 -12 0
-11 -13 0
-11 -14 0
-12 -13 0
-12 -14 0
-13 -14 0
-220 197 1 0
-221 198 0
-222 199 2 0
-223 200 3 0
-224 201 4 0
-225 202 0
-226 203 5 0
-227 204 0
-228 205 6 0
-229 206 7 0
-230 207 8 0
-231 208 0
-232 209 9 0
-233 210 10 0
-234 211 11 0
-235 212 12 0
-236 213 13 0
-237 214 0
-238 215 0
-239 216 0
-240 217 14 0
-241 218 0
-242 219 0
-15 -16 0
-15 -17 0
-15 -18 0
-15 -19 0
-15 -20 0
-15 -21 0
-15 -22 0
-15 -23 0
-15 -24 0
-15 -25 0
-15 -26 0
-15 -27 0
-15 -28 0
-16 -17 0
-16 -18 0
-16 -19 0
-16 -20 0
-16 -21 0
-16 -22 0
-16 -23 0
-16 -24 0
-16 -25 0
-16 -26 0
-16 -27 0
-16 -28 0
-17 -18 0
-17 -19 0
-17 -20 0
-17 -21 0
-17 -22 0
-17 -23 0
-17 -24 0
-17 -25 0
-17 -26 0
-17 -27 0
-17 -28 0
-18 -19 0
-18 -20 0
-18 -21 0
-18 -22 0
-18 -23 0
-18 -24 0
-18 -25 0
-18 -26 0
-18 -27 0
-18 -28 0
-19 -20 0
-19 -21 0
-19 -22 0
-19 -23 0
-19 -24 0
-19 -25 0
-19 -26 0
-19 -27 0
-19 -28 0
-20 -21 0
-20 -22 0
-20 -23 0
-20 -24 0
-20 -25 0
-20 -26 0
-20 -27 0
-20 -28 0
-21 -22 0
-21 -23 0
-21 -24 0
-21 -25 0
-21 -26 0
-21 -27 0
-21 -28 0
-22 -23 0
-22 -24 0
-22 -25 0
-22 -26 0
-22 -27 0
-22 -28 0
-23 -24 0
-23 -25 0
-23 -26 0
-23 -27 0
-23 -28 0
-24 -25 0
-24 -26 0
-24 -27 0
-24 -28 0
-25 -26 0
-25 -27 0
-25 -28 0
-26 -27 0
-26 -28 0
-27 -28 0
-243 220 15 0
-244 221 0
-245 222 16 0
-246 223 17 0
-247 224 18 0
-248 225 0
-249 226 19 0
-250 227 0
-251 228 20 0
-252 229 21 0
-253 230 22 0
-254 231 0
-255 232 23 0
-256 233 24 0
-257 234 25 0
-258 235 26 0
-259 236 27 0
-260 237 0
-261 238 0
-262 239 0
-263 240 28 0
-264 241 0
-265 242 0
-29 -30 0
-29 -31 0
-29 -32 0
-29 -33 0
-29 -34 0
-29 -35 0
-29 -36 0
-29 -37 0
-29 -38 0
-29 -39 0
-29 -40 0
-29 -41 0
-29 -42 0
-30 -31 0
-30 -32 0
-30 -33 0
-30 -34 0
-30 -35 0
-30 -36 0
-30 -37 0
-30 -38 0
-30 -39 0
-30 -40 0
-30 -41 0
-30 -42 0
-31 -32 0
-31 -33 0
-31 -34 0
-31 -35 0
-31 -36 0
-31 -37 0
-31 -38 0
-31 -39 0
-31 -40 0
-31 -41 0
-31 -42 0
-32 -33 0
-32 -34 0
-32 -35 0
-32 -36 0
-32 -37 0
-32 -38 0
-32 -39 0
-32 -40 0
-32 -41 0
-32 -42 0
-33 -34 0
-33 -35 0
-33 -36 0
-33 -37 0
-33 -38 0
-33 -39 0
-33 -40 0
-33 -41 0
-33 -42 0
-34 -35 0
-34 -36 0
-34 -37 0
-34 -38 0
-34 -39 0
-34 -40 0
-34 -41 0
-34 -42 0
-35 -36 0
-35 -37 0
-35 -38 0
-35 -39 0
-35 -40 0
-35 -41 0
-35 -42 0
-36 -37 0
-36 -38 0
-36 -39 0
-36 -40 0
-36 -41 0
-36 -42 0
-37 -38 0
-37 -39 0
-37 -40 0
-37 -41 0
-37 -42 0
-38 -39 0
-38 -40 0
-38 -41 0
-38 -42 0
-39 -40 0
-39 -41 0
-39 -42 0
-40 -41 0
-40 -42 0
-41 -42 0
-266 243 29 0
-267 244 0
-268 245 30 0
-269 246 31 0
-270 247 32 0
-271 248 0
-272 249 33 0
-273 250 0
-274 251 34 0
-275 252 35 0
-276 253 36 0
-277 254 0
-278 255 37 0
-279 256 38 0
-280 257 39 0
-281 258 40 0
-282 259 41 0
-283 260 0
-284 261 0
-285 262 0
-286 263 42 0
-287 264 0
-288 265 0
-43 -44 0
-43 -45 0
-43 -46 0
-43 -47 0
-43 -48 0
-43 -49 0
-43 -50 0
-43 -51 0
-43 -52 0
-43 -53 0
-43 -54 0
-43 -55 0
-43 -56 0
-44 -45 0
-44 -46 0
-44 -47 0
-44 -48 0
-44 -49 0
-44 -50 0
-44 -51 0
-44 -52 0
-44 -53 0
-44 -54 0
-44 -55 0
-44 -56 0
-45 -46 0
-45 -47 0
-45 -48 0
-45 -49 0
-45 -50 0
-45 -51 0
-45 -52 0
-45 -53 0
-45 -54 0
-45 -55 0
-45 -56 0
-46 -47 0
-46 -48 0
-46 -49 0
-46 -50 0
-46 -51 0
-46 -52 0
-46 -53 0
-46 -54 0
-46 -55 0
-46 -56 0
-47 -48 0
-47 -49 0
-47 -50 0
-47 -51 0
-47 -52 0
-47 -53 0
-47 -54 0
-47 -55 0
-47 -56 0
-48 -49 0
-48 -50 0
-48 -51 0
-48 -52 0
-48 -53 0
-48 -54 0
-48 -55 0
-48 -56 0
-49 -50 0
-49 -51 0
-49 -52 0
-49 -53 0
-49 -54 0
-49 -55 0
-49 -56 0
-50 -51 0
-50 -52 0
-50 -53 0
-50 -54 0
-50 -55 0
-50 -56 0
-51 -52 0
-51 -53 0
-51 -54 0
-51 -55 0
-51 -56 0
-52 -53 0
-52 -54 0
-52 -55 0
-52 -56 0
-53 -54 0
-53 -55 0
-53 -56 0
-54 -55 0
-54 -56 0
-55 -56 0
-289 266 43 0
-290 267 0
-291 268 44 0
-292 269 45 0
-293 270 46 0
-294 271 0
-295 272 47 0
-296 273 0
-297 274 48 0
-298 275 49 0
-299 276 50 0
-300 277 0
-301 278 51 0
-302 279 52 0
-303 280 53 0
-304 281 54 0
-305 282 55 0
-306 283 0
-307 284 0
-308 285 0
-309 286 56 0
-310 287 0
-311 288 0
-57 -58 0
-57 -59 0
-57 -60 0
-57 -61 0
-57 -62 0
-57 -63 0
-57 -64 0
-57 -65 0
-57 -66 0
-57 -67 0
-57 -68 0
-57 -69 0
-57 -70 0
-58 -59 0
-58 -60 0
-58 -61 0
-58 -62 0
-58 -63 0
-58 -64 0
-58 -65 0
-58 -66 0
-58 -67 0
-58 -68 0
-58 -69 0
-58 -70 0
-59 -60 0
-59 -61 0
-59 -62 0
-59 -63 0
-59 -64 0
-59 -65 0
-59 -66 0
-59 -67 0
-59 -68 0
-59 -69 0
-59 -70 0
-60 -61 0
-60 -62 0
-60 -63 0
-60 -64 0
-60 -65 0
-60 -66 0
-60 -67 0
-60 -68 0
-60 -69 0
-60 -70 0
-61 -62 0
-61 -63 0
-61 -64 0
-61 -65 0
-61 -66 0
-61 -67 0
-61 -68 0
-61 -69 0
-61 -70 0
-62 -63 0
-62 -64 0
-62 -65 0
-62 -66 0
-62 -67 0
-62 -68 0
-62 -69 0
-62 -70 0
-63 -64 0
-63 -65 0
-63 -66 0
-63 -67 0
-63 -68 0
-63 -69 0
-63 -70 0
-64 -65 0
-64 -66 0
-64 -67 0
-64 -68 0
-64 -69 0
-64 -70 0
-65 -66 0
-65 -67 0
-65 -68 0
-65 -69 0
-65 -70 0
-66 -67 0
-66 -68 0
-66 -69 0
-66 -70 0
-67 -68 0
-67 -69 0
-67 -70 0
-68 -69 0
-68 -70 0
-69 -70 0
-312 289 57 0
-313 290 0
-314 291 58 0
-315 292 59 0
-316 293 60 0
-317 294 0
-318 295 61 0
-319 296 0
-320 297 62 0
-321 298 63 0
-322 299 64 0
-323 300 0
-324 301 65 0
-325 302 66 0
-326 303 67 0
-327 304 68 0
-328 305 69 0
-329 306 0
-330 307 0
-331 308 0
-332 309 70 0
-333 310 0
-334 311 0
-71 -72 0
-71 -73 0
-71 -74 0
-71 -75 0
-71 -76 0
-71 -77 0
-71 -78 0
-71 -79 0
-71 -80 0
-71 -81 0
-71 -82 0
-71 -83 0
-71 -84 0
-72 -73 0
-72 -74 0
-72 -75 0
-72 -76 0
-72 -77 0
-72 -78 0
-72 -79 0
-72 -80 0
-72 -81 0
-72 -82 0
-72 -83 0
-72 -84 0
-73 -74 0
-73 -75 0
-73 -76 0
-73 -77 0
-73 -78 0
-73 -79 0
-73 -80 0
-73 -81 0
-73 -82 0
-73 -83 0
-73 -84 0
-74 -75 0
-74 -76 0
-74 -77 0
-74 -78 0
-74 -79 0
-74 -80 0
-74 -81 0
-74 -82 0
-74 -83 0
-74 -84 0
-75 -76 0
-75 -77 0
-75 -78 0
-75 -79 0
-75 -80 0
-75 -81 0
-75 -82 0
-75 -83 0
-75 -84 0
-76 -77 0
-76 -78 0
-76 -79 0
-76 -80 0
-76 -81 0
-76 -82 0
-76 -83 0
-76 -84 0
-77 -78 0
-77 -79 0
-77 -80 0
-77 -81 0
-77 -82 0
-77 -83 0
-77 -84 0
-78 -79 0
-78 -80 0
-78 -81 0
-78 -82 0
-78 -83 0
-78 -84 0
-79 -80 0
-79 -81 0
-79 -82 0
-79 -83 0
-79 -84 0
-80 -81 0
-80 -82 0
-80 -83 0
-80 -84 0
-81 -82 0
-81 -83 0
-81 -84 0
-82 -83 0
-82 -84 0
-83 -84 0
-335 312 71 0
-336 313 0
-337 314 72 0
-338 315 73 0
-339 316 74 0
-340 317 0
-341 318 75 0
-342 319 0
-343 320 76 0
-344 321 77 0
-345 322 78 0
-346 323 0
-347 324 79 0
-348 325 80 0
-349 326 81 0
-350 327 82 0
-351 328 83 0
-352 329 0
-353 330 0
-354 331 0
-355 332 84 0
-356 333 0
-357 334 0
-85 -86 0
-85 -87 0
-85 -88 0
-85 -89 0
-85 -90 0
-85 -91 0
-85 -92 0
-85 -93 0
-85 -94 0
-85 -95 0
-85 -96 0
-85 -97 0
-85 -98 0
-86 -87 0
-86 -88 0
-86 -89 0
-86 -90 0
-86 -91 0
-86 -92 0
-86 -93 0
-86 -94 0
-86 -95 0
-86 -96 0
-86 -97 0
-86 -98 0
-87 -88 0
-87 -89 0
-87 -90 0
-87 -91 0
-87 -92 0
-87 -93 0
-87 -94 0
-87 -95 0
-87 -96 0
-87 -97 0
-87 -98 0
-88 -89 0
-88 -90 0
-88 -91 0
-88 -92 0
-88 -93 0
-88 -94 0
-88 -95 0
-88 -96 0
-88 -97 0
-88 -98 0
-89 -90 0
-89 -91 0
-89 -92 0
-89 -93 0
-89 -94 0
-89 -95 0
-89 -96 0
-89 -97 0
-89 -98 0
-90 -91 0
-90 -92 0
-90 -93 0
-90 -94 0
-90 -95 0
-90 -96 0
-90 -97 0
-90 -98 0
-91 -92 0
-91 -93 0
-91 -94 0
-91 -95 0
-91 -96 0
-91 -97 0
-91 -98 0
-92 -93 0
-92 -94 0
-92 -95 0
-92 -96 0
-92 -97 0
-92 -98 0
-93 -94 0
-93 -95 0
-93 -96 0
-93 -97 0
-93 -98 0
-94 -95 0
-94 -96 0
-94 -97 0
-94 -98 0
-95 -96 0
-95 -97 0
-95 -98 0
-96 -97 0
-96 -98 0
-97 -98 0
-358 335 85 0
-359 336 0
-360 337 86 0
-361 338 87 0
-362 339 88 0
-363 340 0
-364 341 89 0
-365 342 0
-366 343 90 0
-367 344 91 0
-368 345 92 0
-369 346 0
-370 347 93 0
-371 348 94 0
-372 349 95 0
-373 350 96 0
-374 351 97 0
-375 352 0
-376 353 0
-377 354 0
-378 355 98 0
-379 356 0
-380 357 0
-99 -100 0
-99 -101 0
-99 -102 0
-99 -103 0
-99 -104 0
-99 -105 0
-99 -106 0
-99 -107 0
-99 -108 0
-99 -109 0
-99 -110 0
-99 -111 0
-99 -112 0
-100 -101 0
-100 -102 0
-100 -103 0
-100 -104 0
-100 -105 0
-100 -106 0
-100 -107 0
-100 -108 0
-100 -109 0
-100 -110 0
-100 -111 0
-100 -112 0
-101 -102 0
-101 -103 0
-101 -104 0
-101 -105 0
-101 -106 0
-101 -107 0
-101 -108 0
-101 -109 0
-101 -110 0
-101 -111 0
-101 -112 0
-102 -103 0
-102 -104 0
-102 -105 0
-102 -106 0
-102 -107 0
-102 -108 0
-102 -109 0
-102 -110 0
-102 -111 0
-102 -112 0
-103 -104 0
-103 -105 0
-103 -106 0
-103 -107 0
-103 -108 0
-103 -109 0
-103 -110 0
-103 -111 0
-103 -112 0
-104 -105 0
-104 -106 0
-104 -107 0
-104 -108 0
-104 -109 0
-104 -110 0
-104 -111 0
-104 -112 0
-105 -106 0
-105 -107 0
-105 -108 0
-105 -109 0
-105 -110 0
-105 -111 0
-105 -112 0
-106 -107 0
-106 -108 0
-106 -109 0
-106 -110 0
-106 -111 0
-106 -112 0
-107 -108 0
-107 -109 0
-107 -110 0
-107 -111 0
-107 -112 0
-108 -109 0
-108 -110 0
-108 -111 0
-108 -112 0
-109 -110 0
-109 -111 0
-109 -112 0
-110 -111 0
-110 -112 0
-111 -112 0
-381 358 99 0
-382 359 0
-383 360 100 0
-384 361 101 0
-385 362 102 0
-386 363 0
-387 364 103 0
-388 365 0
-389 366 104 0
-390 367 105 0
-391 368 106 0
-392 369 0
-393 370 107 0
-394 371 108 0
-395 372 109 0
-396 373 110 0
-397 374 111 0
-398 375 0
-399 376 0
-400 377 0
-401 378 112 0
-402 379 0
-403 380 0
-113 -114 0
-113 -115 0
-113 -116 0
-113 -117 0
-113 -118 0
-113 -119 0
-113 -120 0
-113 -121 0
-113 -122 0
-113 -123 0
-113 -124 0
-113 -125 0
-113 -126 0
-114 -115 0
-114 -116 0
-114 -117 0
-114 -118 0
-114 -119 0
-114 -120 0
-114 -121 0
-114 -122 0
-114 -123 0
-114 -124 0
-114 -125 0
-114 -126 0
-115 -116 0
-115 -117 0
-115 -118 0
-115 -119 0
-115 -120 0
-115 -121 0
-115 -122 0
-115 -123 0
-115 -124 0
-115 -125 0
-115 -126 0
-116 -117 0
-116 -118 0
-116 -119 0
-116 -120 0
-116 -121 0
-116 -122 0
-116 -123 0
-116 -124 0
-116 -125 0
-116 -126 0
-117 -118 0
-117 -119 0
-117 -120 0
-117 -121 0
-117 -122 0
-117 -123 0
-117 -124 0
-117 -125 0
-117 -126 0
-118 -119 0
-118 -120 0
-118 -121 0
-118 -122 0
-118 -123 0
-118 -124 0
-118 -125 0
-118 -126 0
-119 -120 0
-119 -121 0
-119 -122 0
-119 -123 0
-119 -124 0
-119 -125 0
-119 -126 0
-120 -121 0
-120 -122 0
-120 -123 0
-120 -124 0
-120 -125 0
-120 -126 0
-121 -122 0
-121 -123 0
-121 -124 0
-121 -125 0
-121 -126 0
-122 -123 0
-122 -124 0
-122 -125 0
-122 -126 0
-123 -124 0
-123 -125 0
-123 -126 0
-124 -125 0
-124 -126 0
-125 -126 0
-404 381 113 0
-405 382 0
-406 383 114 0
-407 384 115 0
-408 385 116 0
-409 386 0
-410 387 117 0
-411 388 0
-412 389 118 0
-413 390 119 0
-414 391 120 0
-415 392 0
-416 393 121 0
-417 394 122 0
-418 395 123 0
-419 396 124 0
-420 397 125 0
-421 398 0
-422 399 0
-423 400 0
-424 401 126 0
-425 402 0
-426 403 0
-127 -128 0
-127 -129 0
-127 -130 0
-127 -131 0
-127 -132 0
-127 -133 0
-127 -134 0
-127 -135 0
-127 -136 0
-127 -137 0
-127 -138 0
-127 -139 0
-127 -140 0
-128 -129 0
-128 -130 0
-128 -131 0
-128 -132 0
-128 -133 0
-128 -134 0
-128 -135 0
-128 -136 0
-128 -137 0
-128 -138 0
-128 -139 0
-128 -140 0
-129 -130 0
-129 -131 0
-129 -132 0
-129 -133 0
-129 -134 0
-129 -135 0
-129 -136 0
-129 -137 0
-129 -138 0
-129 -139 0
-129 -140 0
-130 -131 0
-130 -132 0
-130 -133 0
-130 -134 0
-130 -135 0
-130 -136 0
-130 -137 0
-130 -138 0
-130 -139 0
-130 -140 0
-131 -132 0
-131 -133 0
-131 -134 0
-131 -135 0
-131 -136 0
-131 -137 0
-131 -138 0
-131 -139 0
-131 -140 0
-132 -133 0
-132 -134 0
-132 -135 0
-132 -136 0
-132 -137 0
-132 -138 0
-132 -139 0
-132 -140 0
-133 -134 0
-133 -135 0
-133 -136 0
-133 -137 0
-133 -138 0
-133 -139 0
-133 -140 0
-134 -135 0
-134 -136 0
-134 -137 0
-134 -138 0
-134 -139 0
-134 -140 0
-135 -136 0
-135 -137 0
-135 -138 0
-135 -139 0
-135 -140 0
-136 -137 0
-136 -138 0
-136 -139 0
-136 -140 0
-137 -138 0
-137 -139 0
-137 -140 0
-138 -139 0
-138 -140 0
-139 -140 0
-427 404 127 0
-428 405 0
-429 406 128 0
-430 407 129 0
-431 408 130 0
-432 409 0
-433 410 131 0
-434 411 0
-435 412 132 0
-436 413 133 0
-437 414 134 0
-438 415 0
-439 416 135 0
-440 417 136 0
-441 418 137 0
-442 419 138 0
-443 420 139 0
-444 421 0
-445 422 0
-446 423 0
-447 424 140 0
-448 425 0
-449 426 0
-141 -142 0
-141 -143 0
-141 -144 0
-141 -145 0
-141 -146 0
-141 -147 0
-141 -148 0
-141 -149 0
-141 -150 0
-141 -151 0
-141 -152 0
-141 -153 0
-141 -154 0
-142 -143 0
-142 -144 0
-142 -145 0
-142 -146 0
-142 -147 0
-142 -148 0
-142 -149 0
-142 -150 0
-142 -151 0
-142 -152 0
-142 -153 0
-142 -154 0
-143 -144 0
-143 -145 0
-143 -146 0
-143 -147 0
-143 -148 0
-143 -149 0
-143 -150 0
-143 -151 0
-143 -152 0
-143 -153 0
-143 -154 0
-144 -145 0
-144 -146 0
-144 -147 0
-144 -148 0
-144 -149 0
-144 -150 0
-144 -151 0
-144 -152 0
-144 -153 0
-144 -154 0
-145 -146 0
-145 -147 0
-145 -148 0
-145 -149 0
-145 -150 0
-145 -151 0
-145 -152 0
-145 -153 0
-145 -154 0
-146 -147 0
-146 -148 0
-146 -149 0
-146 -150 0
-146 -151 0
-146 -152 0
-146 -153 0
-146 -154 0
-147 -148 0
-147 -149 0
-147 -150 0
-147 -151 0
-147 -152 0
-147 -153 0
-147 -154 0
-148 -149 0
-148 -150 0
-148 -151 0
-148 -152 0
-148 -153 0
-148 -154 0
-149 -150 0
-149 -151 0
-149 -152 0
-149 -153 0
-149 -154 0
-150 -151 0
-150 -152 0
-150 -153 0
-150 -154 0
-151 -152 0
-151 -153 0
-151 -154 0
-152 -153 0
-152 -154 0
-153 -154 0
-450 427 141 0
-451 428 0
-452 429 142 0
-453 430 143 0
-454 431 144 0
-455 432 0
-456 433 145 0
-457 434 0
-458 435 146 0
-459 436 147 0
-460 437 148 0
-461 438 0
-462 439 149 0
-463 440 150 0
-464 441 151 0
-465 442 152 0
-466 443 153 0
-467 444 0
-468 445 0
-469 446 0
-470 447 154 0
-471 448 0
-472 449 0
-155 -156 0
-155 -157 0
-155 -158 0
-155 -159 0
-155 -160 0
-155 -161 0
-155 -162 0
-155 -163 0
-155 -164 0
-155 -165 0
-155 -166 0
-155 -167 0
-155 -168 0
-156 -157 0
-156 -158 0
-156 -159 0
-156 -160 0
-156 -161 0
-156 -162 0
-156 -163 0
-156 -164 0
-156 -165 0
-156 -166 0
-156 -167 0
-156 -168 0
-157 -158 0
-157 -159 0
-157 -160 0
-157 -161 0
-157 -162 0
-157 -163 0
-157 -164 0
-157 -165 0
-157 -166 0
-157 -167 0
-157 -168 0
-158 -159 0
-158 -160 0
-158 -161 0
-158 -162 0
-158 -163 0
-158 -164 0
-158 -165 0
-158 -166 0
-158 -167 0
-158 -168 0
-159 -160 0
-159 -161 0
-159 -162 0
-159 -163 0
-159 -164 0
-159 -165 0
-159 -166 0
-159 -167 0
-159 -168 0
-160 -161 0
-160 -162 0
-160 -163 0
-160 -164 0
-160 -165 0
-160 -166 0
-160 -167 0
-160 -168 0
-161 -162 0
-161 -163 0
-161 -164 0
-161 -165 0
-161 -166 0
-161 -167 0
-161 -168 0
-162 -163 0
-162 -164 0
-162 -165 0
-162 -166 0
-162 -167 0
-162 -168 0
-163 -164 0
-163 -165 0
-163 -166 0
-163 -167 0
-163 -168 0
-164 -165 0
-164 -166 0
-164 -167 0
-164 -168 0
-165 -166 0
-165 -167 0
-165 -168 0
-166 -167 0
-166 -168 0
-167 -168 0
-473 450 155 0
-474 451 0
-475 452 156 0
-476 453 157 0
-477 454 158 0
-478 455 0
-479 456 159 0
-480 457 0
-481 458 160 0
-482 459 161 0
-483 460 162 0
-484 461 0
-485 462 163 0
-486 463 164 0
-487 464 165 0
-488 465 166 0
-489 466 167 0
-490 467 0
-491 468 0
-492 469 0
-493 470 168 0
-494 471 0
-495 472 0
-169 -170 0
-169 -171 0
-169 -172 0
-169 -173 0
-169 -174 0
-169 -175 0
-169 -176 0
-169 -177 0
-169 -178 0
-169 -179 0
-169 -180 0
-169 -181 0
-169 -182 0
-170 -171 0
-170 -172 0
-170 -173 0
-170 -174 0
-170 -175 0
-170 -176 0
-170 -177 0
-170 -178 0
-170 -179 0
-170 -180 0
-170 -181 0
-170 -182 0
-171 -172 0
-171 -173 0
-171 -174 0
-171 -175 0
-171 -176 0
-171 -177 0
-171 -178 0
-171 -179 0
-171 -180 0
-171 -181 0
-171 -182 0
-172 -173 0
-172 -174 0
-172 -175 0
-172 -176 0
-172 -177 0
-172 -178 0
-172 -179 0
-172 -180 0
-172 -181 0
-172 -182 0
-173 -174 0
-173 -175 0
-173 -176 0
-173 -177 0
-173 -178 0
-173 -179 0
-173 -180 0
-173 -181 0
-173 -182 0
-174 -175 0
-174 -176 0
-174 -177 0
-174 -178 0
-174 -179 0
-174 -180 0
-174 -181 0
-174 -182 0
-175 -176 0
-175 -177 0
-175 -178 0
-175 -179 0
-175 -180 0
-175 -181 0
-175 -182 0
-176 -177 0
-176 -178 0
-176 -179 0
-176 -180 0
-176 -181 0
-176 -182 0
-177 -178 0
-177 -179 0
-177 -180 0
-177 -181 0
-177 -182 0
-178 -179 0
-178 -180 0
-178 -181 0
-178 -182 0
-179 -180 0
-179 -181 0
-179 -182 0
-180 -181 0
-180 -182 0
-181 -182 0
-496 473 169 0
-497 474 0
-498 475 170 0
-499 476 171 0
-500 477 172 0
-501 478 0
-502 479 173 0
-503 480 0
-504 481 174 0
-505 482 175 0
-506 483 176 0
-507 484 0
-508 485 177 0
-509 486 178 0
-510 487 179 0
-511 488 180 0
-512 489 181 0
-513 490 0
-514 491 0
-515 492 0
-516 493 182 0
-517 494 0
-518 495 0
-183 -184 0
-183 -185 0
-183 -186 0
-183 -187 0
-183 -188 0
-183 -189 0
-183 -190 0
-183 -191 0
-183 -192 0
-183 -193 0
-183 -194 0
-183 -195 0
-183 -196 0
-184 -185 0
-184 -186 0
-184 -187 0
-184 -188 0
-184 -189 0
-184 -190 0
-184 -191 0
-184 -192 0
-184 -193 0
-184 -194 0
-184 -195 0
-184 -196 0
-185 -186 0
-185 -187 0
-185 -188 0
-185 -189 0
-185 -190 0
-185 -191 0
-185 -192 0
-185 -193 0
-185 -194 0
-185 -195 0
-185 -196 0
-186 -187 0
-186 -188 0
-186 -189 0
-186 -190 0
-186 -191 0
-186 -192 0
-186 -193 0
-186 -194 0
-186 -195 0
-186 -196 0
-187 -188 0
-187 -189 0
-187 -190 0
-187 -191 0
-187 -192 0
-187 -193 0
-187 -194 0
-187 -195 0
-187 -196 0
-188 -189 0
-188 -190 0
-188 -191 0
-188 -192 0
-188 -193 0
-188 -194 0
-188 -195 0
-188 -196 0
-189 -190 0
-189 -191 0
-189 -192 0
-189 -193 0
-189 -194 0
-189 -195 0
-189 -196 0
-190 -191 0
-190 -192 0
-190 -193 0
-190 -194 0
-190 -195 0
-190 -196 0
-191 -192 0
-191 -193 0
-191 -194 0
-191 -195 0
-191 -196 0
-192 -193 0
-192 -194 0
-192 -195 0
-192 -196 0
-193 -194 0
-193 -195 0
-193 -196 0
-194 -195 0
-194 -196 0
-195 -196 0
-519 496 183 0
-520 497 0
-521 498 184 0
-522 499 185 0
-523 500 186 0
-524 501 0
-525 502 187 0
-526 503 0
-527 504 188 0
-528 505 189 0
-529 506 190 0
-530 507 0
-531 508 191 0
-532 509 192 0
-533 510 193 0
-534 511 194 0
-535 512 195 0
-536 513 0
-537 514 0
-538 515 0
-539 516 196 0
-540 517 0
-541 518 0
-197 0
198 0
-199 0
-200 0
-201 0
202 0
-203 0
204 0
-205 0
-206 0
-207 0
208 0
-209 0
-210 0
-211 0
-212 0
-213 0
214 0
215 0
216 0
-217 0
218 0
219 0
1 15 29 43 57 71 85 99 113 127 141 155 169 183 0
2 16 30 44 58 72 86 100 114 128 142 156 170 184 0
3 17 31 45 59 73 87 101 115 129 143 157 171 185 0
4 18 32 46 60 74 88 102 116 130 144 158 172 186 0
5 19 33 47 61 75 89 103 117 131 145 159 173 187 0
6 20 34 48 62 76 90 104 118 132 146 160 174 188 0
7 21 35 49 63 77 91 105 119 133 147 161 175 189 0
8 22 36 50 64 78 92 106 120 134 148 162 176 190 0
9 23 37 51 65 79 93 107 121 135 149 163 177 191 0
10 24 38 52 66 80 94 108 122 136 150 164 178 192 0
11 25 39 53 67 81 95 109 123 137 151 165 179 193 0
12 26 40 54 68 82 96 110 124 138 152 166 180 194 0
13 27 41 55 69 83 97 111 125 139 153 167 181 195 0
14 28 42 56 70 84 98 112 126 140 154 168 182 196 0
-542 198 0
-542 198 0
-1 542 0
-543 198 0
-543 201 0
-544 198 0
-544 201 0
-2 543 544 0
-545 201 0
-545 208 0
-546 201 0
-546 208 0
-547 203 0
-547 206 0
-548 203 0
-548 206 0
-3 545 546 547 548 0
-549 198 0
-549 199 0
-550 198 0
-550 199 0
-551 200 0
-551 208 0
-552 200 0
-552 208 0
-553 203 0
-553 216 0
-554 203 0
-554 216 0
-4 549 550 551 552 553 554 0
-555 200 0
-555 206 0
-556 200 0
-556 206 0
-557 201 0
-557 216 0
-558 201 0
-558 216 0
-559 202 0
-559 218 0
-560 202 0
-560 218 0
-5 555 556 557 558 559 560 0
-561 204 0
-561 219 0
-562 204 0
-562 219 0
-6 561 562 0
-563 200 0
-563 203 0
-564 200 0
-564 203 0
-565 207 0
-565 219 0
-566 207 0
-566 219 0
-567 208 0
-567 216 0
-568 208 0
-568 216 0
-7 563 564 565 566 567 568 0
-569 206 0
-569 219 0
-570 206 0
-570 219 0
-571 208 0
-571 217 0
-572 208 0
-572 217 0
-573 209 0
-573 215 0
-574 209 0
-574 215 0
-8 569 570 571 572 573 574 0
-575 207 0
-575 215 0
-576 207 0
-576 215 0
-9 575 576 0
-577 211 0
-577 215 0
-578 211 0
-578 215 0
-10 577 578 0
-579 210 0
-579 215 0
-580 210 0
-580 215 0
-581 212 0
-581 219 0
-582 212 0
-582 219 0
-11 579 580 581 582 0
-583 211 0
-583 219 0
-584 211 0
-584 219 0
-12 583 584 0
-13 0
-585 207 0
-585 208 0
-586 207 0
-586 208 0
-587 216 0
-587 219 0
-588 216 0
-588 219 0
-14 585 586 587 588 0
-589 221 0
-589 221 0
-15 589 0
-590 221 0
-590 224 0
-591 221 0
-591 224 0
-16 590 591 0
-592 224 0
-592 231 0
-593 224 0
-593 231 0
-594 226 0
-594 229 0
-595 226 0
-595 229 0
-17 592 593 594 595 0
-596 221 0
-596 222 0
-597 221 0
-597 222 0
-598 223 0
-598 231 0
-599 223 0
-599 231 0
-600 226 0
-600 239 0
-601 226 0
-601 239 0
-18 596 597 598 599 600 601 0
-602 223 0
-602 229 0
-603 223 0
-603 229 0
-604 224 0
-604 239 0
-605 224 0
-605 239 0
-606 225 0
-606 241 0
-607 225 0
-607 241 0
-19 602 603 604 605 606 607 0
-608 227 0
-608 242 0
-609 227 0
-609 242 0
-20 608 609 0
-610 223 0
-610 226 0
-611 223 0
-611 226 0
-612 230 0
-612 242 0
-613 230 0
-613 242 0
-614 231 0
-614 239 0
-615 231 0
-615 239 0
-21 610 611 612 613 614 615 0
-616 229 0
-616 242 0
-617 229 0
-617 242 0
-618 231 0
-618 240 0
-619 231 0
-619 240 0
-620 232 0
-620 238 0
-621 232 0
-621 238 0
-22 616 617 618 619 620 621 0
-622 230 0
-622 238 0
-623 230 0
-623 238 0
-23 622 623 0
-624 234 0
-624 238 0
-625 234 0
-625 238 0
-24 624 625 0
-626 233 0
-626 238 0
-627 233 0
-627 238 0
-628 235 0
-628 242 0
-629 235 0
-629 242 0
-25 626 627 628 629 0
-630 234 0
-630 242 0
-631 234 0
-631 242 0
-26 630 631 0
-27 0
-632 230 0
-632 231 0
-633 230 0
-633 231 0
-634 239 0
-634 242 0
-635 239 0
-635 242 0
-28 632 633 634 635 0
-636 244 0
-636 244 0
-29 636 0
-637 244 0
-637 247 0
-638 244 0
-638 247 0
-30 637 638 0
-639 247 0
-639 254 0
-640 247 0
-640 254 0
-641 249 0
-641 252 0
-642 249 0
-642 252 0
-31 639 640 641 642 0
-643 244 0
-643 245 0
-644 244 0
-644 245 0
-645 246 0
-645 254 0
-646 246 0
-646 254 0
-647 249 0
-647 262 0
-648 249 0
-648 262 0
-32 643 644 645 646 647 648 0
-649 246 0
-649 252 0
-650 246 0
-650 252 0
-651 247 0
-651 262 0
-652 247 0
-652 262 0
-653 248 0
-653 264 0
-654 248 0
-654 264 0
-33 649 650 651 652 653 654 0
-655 250 0
-655 265 0
-656 250 0
-656 265 0
-34 655 656 0
-657 246 0
-657 249 0
-658 246 0
-658 249 0
-659 253 0
-659 265 0
-660 253 0
-660 265 0
-661 254 0
-661 262 0
-662 254 0
-662 262 0
-35 657 658 659 660 661 662 0
-663 252 0
-663 265 0
-664 252 0
-664 265 0
-665 254 0
-665 263 0
-666 254 0
-666 263 0
-667 255 0
-667 261 0
-668 255 0
-668 261 0
-36 663 664 665 666 667 668 0
-669 253 0
-669 261 0
-670 253 0
-670 261 0
-37 669 670 0
-671 257 0
-671 261 0
-672 257 0
-672 261 0
-38 671 672 0
-673 256 0
-673 261 0
-674 256 0
-674 261 0
-675 258 0
-675 265 0
-676 258 0
-676 265 0
-39 673 674 675 676 0
-677 257 0
-677 265 0
-678 257 0
-678 265 0
-40 677 678 0
-41 0
-679 253 0
-679 254 0
-680 253 0
-680 254 0
-681 262 0
-681 265 0
-682 262 0
-682 265 0
-42 679 680 681 682 0
-683 267 0
-683 267 0
-43 683 0
-684 267 0
-684 270 0
-685 267 0
-685 270 0
-44 684 685 0
-686 270 0
-686 277 0
-687 270 0
-687 277 0
-688 272 0
-688 275 0
-689 272 0
-689 275 0
-45 686 687 688 689 0
-690 267 0
-690 268 0
-691 267 0
-691 268 0
-692 269 0
-692 277 0
-693 269 0
-693 277 0
-694 272 0
-694 285 0
-695 272 0
-695 285 0
-46 690 691 692 693 694 695 0
-696 269 0
-696 275 0
-697 269 0
-697 275 0
-698 270 0
-698 285 0
-699 270 0
-699 285 0
-700 271 0
-700 287 0
-701 271 0
-701 287 0
-47 696 697 698 699 700 701 0
-702 273 0
-702 288 0
-703 273 0
-703 288 0
-48 702 703 0
-704 269 0
-704 272 0
-705 269 0
-705 272 0
-706 276 0
-706 288 0
-707 276 0
-707 288 0
-708 277 0
-708 285 0
-709 277 0
-709 285 0
-49 704 705 706 707 708 709 0
-710 275 0
-710 288 0
-711 275 0
-711 288 0
-712 277 0
-712 286 0
-713 277 0
-713 286 0
-714 278 0
-714 284 0
-715 278 0
-715 284 0
-50 710 711 712 713 714 715 0
-716 276 0
-716 284 0
-717 276 0
-717 284 0
-51 716 717 0
-718 280 0
-718 284 0
-719 280 0
-719 284 0
-52 718 719 0
-720 279 0
-720 284 0
-721 279 0
-721 284 0
-722 281 0
-722 288 0
-723 281 0
-723 288 0
-53 720 721 722 723 0
-724 280 0
-724 288 0
-725 280 0
-725 288 0
-54 724 725 0
-55 0
-726 276 0
-726 277 0
-727 276 0
-727 277 0
-728 285 0
-728 288 0
-729 285 0
-729 288 0
-56 726 727 728 729 0
-730 290 0
-730 290 0
-57 730 0
-731 290 0
-731 293 0
-732 290 0
-732 293 0
-58 731 732 0
-733 293 0
-733 300 0
-734 293 0
-734 300 0
-735 295 0
-735 298 0
-736 295 0
-736 298 0
-59 733 734 735 736 0
-737 290 0
-737 291 0
-738 290 0
-738 291 0
-739 292 0
-739 300 0
-740 292 0
-740 300 0
-741 295 0
-741 308 0
-742 295 0
-742 308 0
-60 737 738 739 740 741 742 0
-743 292 0
-743 298 0
-744 292 0
-744 298 0
-745 293 0
-745 308 0
-746 293 0
-746 308 0
-747 294 0
-747 310 0
-748 294 0
-748 310 0
-61 743 744 745 746 747 748 0
-749 296 0
-749 311 0
-750 296 0
-750 311 0
-62 749 750 0
-751 292 0
-751 295 0
-752 292 0
-752 295 0
-753 299 0
-753 311 0
-754 299 0
-754 311 0
-755 300 0
-755 308 0
-756 300 0
-756 308 0
-63 751 752 753 754 755 756 0
-757 298 0
-757 311 0
-758 298 0
-758 311 0
-759 300 0
-759 309 0
-760 300 0
-760 309 0
-761 301 0
-761 307 0
-762 301 0
-762 307 0
-64 757 758 759 760 761 762 0
-763 299 0
-763 307 0
-764 299 0
-764 307 0
-65 763 764 0
-765 303 0
-765 307 0
-766 303 0
-766 307 0
-66 765 766 0
-767 302 0
-767 307 0
-768 302 0
-768 307 0
-769 304 0
-769 311 0
-770 304 0
-770 311 0
-67 767 768 769 770 0
-771 303 0
-771 311 0
-772 303 0
-772 311 0
-68 771 772 0
-69 0
-773 299 0
-773 300 0
-774 299 0
-774 300 0
-775 308 0
-775 311 0
-776 308 0
-776 311 0
-70 773 774 775 776 0
-777 313 0
-777 313 0
-71 777 0
-778 313 0
-778 316 0
-779 313 0
-779 316 0
-72 778 779 0
-780 316 0
-780 323 0
-781 316 0
-781 323 0
-782 318 0
-782 321 0
-783 318 0
-783 321 0
-73 780 781 782 783 0
-784 313 0
-784 314 0
-785 313 0
-785 314 0
-786 315 0
-786 323 0
-787 315 0
-787 323 0
-788 318 0
-788 331 0
-789 318 0
-789 331 0
-74 784 785 786 787 788 789 0
-790 315 0
-790 321 0
-791 315 0
-791 321 0
-792 316 0
-792 331 0
-793 316 0
-793 331 0
-794 317 0
-794 333 0
-795 317 0
-795 333 0
-75 790 791 792 793 794 795 0
-796 319 0
-796 334 0
-797 319 0
-797 334 0
-76 796 797 0
-798 315 0
-798 318 0
-799 315 0
-799 318 0
-800 322 0
-800 334 0
-801 322 0
-801 334 0
-802 323 0
-802 331 0
-803 323 0
-803 331 0
-77 798 799 800 801 802 803 0
-804 321 0
-804 334 0
-805 321 0
-805 334 0
-806 323 0
-806 332 0
-807 323 0
-807 332 0
-808 324 0
-808 330 0
-809 324 0
-809 330 0
-78 804 805 806 807 808 809 0
-810 322 0
-810 330 0
-811 322 0
-811 330 0
-79 810 811 0
-812 326 0
-812 330 0
-813 326 0
-813 330 0
-80 812 813 0
-814 325 0
-814 330 0
-815 325 0
-815 330 0
-816 327 0
-816 334 0
-817 327 0
-817 334 0
-81 814 815 816 817 0
-818 326 0
-818 334 0
-819 326 0
-819 334 0
-82 818 819 0
-83 0
-820 322 0
-820 323 0
-821 322 0
-821 323 0
-822 331 0
-822 334 0
-823 331 0
-823 334 0
-84 820 821 822 823 0
-824 336 0
-824 336 0
-85 824 0
-825 336 0
-825 339 0
-826 336 0
-826 339 0
-86 825 826 0
-827 339 0
-827 346 0
-828 339 0
-828 346 0
-829 341 0
-829 344 0
-830 341 0
-830 344 0
-87 827 828 829 830 0
-831 336 0
-831 337 0
-832 336 0
-832 337 0
-833 338 0
-833 346 0
-834 338 0
-834 346 0
-835 341 0
-835 354 0
-836 341 0
-836 354 0
-88 831 832 833 834 835 836 0
-837 338 0
-837 344 0
-838 338 0
-838 344 0
-839 339 0
-839 354 0
-840 339 0
-840 354 0
-841 340 0
-841 356 0
-842 340 0
-842 356 0
-89 837 838 839 840 841 842 0
-843 342 0
-843 357 0
-844 342 0
-844 357 0
-90 843 844 0
-845 338 0
-845 341 0
-846 338 0
-846 341 0
-847 345 0
-847 357 0
-848 345 0
-848 357 0
-849 346 0
-849 354 0
-850 346 0
-850 354 0
-91 845 846 847 848 849 850 0
-851 344 0
-851 357 0
-852 344 0
-852 357 0
-853 346 0
-853 355 0
-854 346 0
-854 355 0
-855 347 0
-855 353 0
-856 347 0
-856 353 0
-92 851 852 853 854 855 856 0
-857 345 0
-857 353 0
-858 345 0
-858 353 0
-93 857 858 0
-859 349 0
-859 353 0
-860 349 0
-860 353 0
-94 859 860 0
-861 348 0
-861 353 0
-862 348 0
-862 353 0
-863 350 0
-863 357 0
-864 350 0
-864 357 0
-95 861 862 863 864 0
-865 349 0
-865 357 0
-866 349 0
-866 357 0
-96 865 866 0
-97 0
-867 345 0
-867 346 0
-868 345 0
-868 346 0
-869 354 0
-869 357 0
-870 354 0
-870 357 0
-98 867 868 869 870 0
-871 359 0
-871 359 0
-99 871 0
-872 359 0
-872 362 0
-873 359 0
-873 362 0
-100 872 873 0
-874 362 0
-874 369 0
-875 362 0
-875 369 0
-876 364 0
-876 367 0
-877 364 0
-877 367 0
-101 874 875 876 877 0
-878 359 0
-878 360 0
-879 359 0
-879 360 0
-880 361 0
-880 369 0
-881 361 0
-881 369 0
-882 364 0
-882 377 0
-883 364 0
-883 377 0
-102 878 879 880 881 882 883 0
-884 361 0
-884 367 0
-885 361 0
-885 367 0
-886 362 0
-886 377 0
-887 362 0
-887 377 0
-888 363 0
-888 379 0
-889 363 0
-889 379 0
-103 884 885 886 887 888 889 0
-890 365 0
-890 380 0
-891 365 0
-891 380 0
-104 890 891 0
-892 361 0
-892 364 0
-893 361 0
-893 364 0
-894 368 0
-894 380 0
-895 368 0
-895 380 0
-896 369 0
-896 377 0
-897 369 0
-897 377 0
-105 892 893 894 895 896 897 0
-898 367 0
-898 380 0
-899 367 0
-899 380 0
-900 369 0
-900 378 0
-901 369 0
-901 378 0
-902 370 0
-902 376 0
-903 370 0
-903 376 0
-106 898 899 900 901 902 903 0
-904 368 0
-904 376 0
-905 368 0
-905 376 0
-107 904 905 0
-906 372 0
-906 376 0
-907 372 0
-907 376 0
-108 906 907 0
-908 371 0
-908 376 0
-909 371 0
-909 376 0
-910 373 0
-910 380 0
-911 373 0
-911 380 0
-109 908 909 910 911 0
-912 372 0
-912 380 0
-913 372 0
-913 380 0
-110 912 913 0
-111 0
-914 368 0
-914 369 0
-915 368 0
-915 369 0
-916 377 0
-916 380 0
-917 377 0
-917 380 0
-112 914 915 916 917 0
-918 382 0
-918 382 0
-113 918 0
-919 382 0
-919 385 0
-920 382 0
-920 385 0
-114 919 920 0
-921 385 0
-921 392 0
-922 385 0
-922 392 0
-923 387 0
-923 390 0
-924 387 0
-924 390 0
-115 921 922 923 924 0
-925 382 0
-925 383 0
-926 382 0
-926 383 0
-927 384 0
-927 392 0
-928 384 0
-928 392 0
-929 387 0
-929 400 0
-930 387 0
-930 400 0
-116 925 926 927 928 929 930 0
-931 384 0
-931 390 0
-932 384 0
-932 390 0
-933 385 0
-933 400 0
-934 385 0
-934 400 0
-935 386 0
-935 402 0
-936 386 0
-936 402 0
-117 931 932 933 934 935 936 0
-937 388 0
-937 403 0
-938 388 0
-938 403 0
-118 937 938 0
-939 384 0
-939 387 0
-940 384 0
-940 387 0
-941 391 0
-941 403 0
-942 391 0
-942 403 0
-943 392 0
-943 400 0
-944 392 0
-944 400 0
-119 939 940 941 942 943 944 0
-945 390 0
-945 403 0
-946 390 0
-946 403 0
-947 392 0
-947 401 0
-948 392 0
-948 401 0
-949 393 0
-949 399 0
-950 393 0
-950 399 0
-120 945 946 947 948 949 950 0
-951 391 0
-951 399 0
-952 391 0
-952 399 0
-121 951 952 0
-953 395 0
-953 399 0
-954 395 0
-954 399 0
-122 953 954 0
-955 394 0
-955 399 0
-956 394 0
-956 399 0
-957 396 0
-957 403 0
-958 396 0
-958 403 0
-123 955 956 957 958 0
-959 395 0
-959 403 0
-960 395 0
-960 403 0
-124 959 960 0
-125 0
-961 391 0
-961 392 0
-962 391 0
-962 392 0
-963 400 0
-963 403 0
-964 400 0
-964 403 0
-126 961 962 963 964 0
-965 405 0
-965 405 0
-127 965 0
-966 405 0
-966 408 0
-967 405 0
-967 408 0
-128 966 967 0
-968 408 0
-968 415 0
-969 408 0
-969 415 0
-970 410 0
-970 413 0
-971 410 0
-971 413 0
-129 968 969 970 971 0
-972 405 0
-972 406 0
-973 405 0
-973 406 0
-974 407 0
-974 415 0
-975 407 0
-975 415 0
-976 410 0
-976 423 0
-977 410 0
-977 423 0
-130 972 973 974 975 976 977 0
-978 407 0
-978 413 0
-979 407 0
-979 413 0
-980 408 0
-980 423 0
-981 408 0
-981 423 0
-982 409 0
-982 425 0
-983 409 0
-983 425 0
-131 978 979 980 981 982 983 0
-984 411 0
-984 426 0
-985 411 0
-985 426 0
-132 984 985 0
-986 407 0
-986 410 0
-987 407 0
-987 410 0
-988 414 0
-988 426 0
-989 414 0
-989 426 0
-990 415 0
-990 423 0
-991 415 0
-991 423 0
-133 986 987 988 989 990 991 0
-992 413 0
-992 426 0
-993 413 0
-993 426 0
-994 415 0
-994 424 0
-995 415 0
-995 424 0
-996 416 0
-996 422 0
-997 416 0
-997 422 0
-134 992 993 994 995 996 997 0
-998 414 0
-998 422 0
-999 414 0
-999 422 0
-135 998 999 0
-1000 418 0
-1000 422 0
-1001 418 0
-1001 422 0
-136 1000 1001 0
-1002 417 0
-1002 422 0
-1003 417 0
-1003 422 0
-1004 419 0
-1004 426 0
-1005 419 0
-1005 426 0
-137 1002 1003 1004 1005 0
-1006 418 0
-1006 426 0
-1007 418 0
-1007 426 0
-138 1006 1007 0
-139 0
-1008 414 0
-1008 415 0
-1009 414 0
-1009 415 0
-1010 423 0
-1010 426 0
-1011 423 0
-1011 426 0
-140 1008 1009 1010 1011 0
-1012 428 0
-1012 428 0
-141 1012 0
-1013 428 0
-1013 431 0
-1014 428 0
-1014 431 0
-142 1013 1014 0
-1015 431 0
-1015 438 0
-1016 431 0
-1016 438 0
-1017 433 0
-1017 436 0
-1018 433 0
-1018 436 0
-143 1015 1016 1017 1018 0
-1019 428 0
-1019 429 0
-1020 428 0
-1020 429 0
-1021 430 0
-1021 438 0
-1022 430 0
-1022 438 0
-1023 433 0
-1023 446 0
-1024 433 0
-1024 446 0
-144 1019 1020 1021 1022 1023 1024 0
-1025 430 0
-1025 436 0
-1026 430 0
-1026 436 0
-1027 431 0
-1027 446 0
-1028 431 0
-1028 446 0
-1029 432 0
-1029 448 0
-1030 432 0
-1030 448 0
-145 1025 1026 1027 1028 1029 1030 0
-1031 434 0
-1031 449 0
-1032 434 0
-1032 449 0
-146 1031 1032 0
-1033 430 0
-1033 433 0
-1034 430 0
-1034 433 0
-1035 437 0
-1035 449 0
-1036 437 0
-1036 449 0
-1037 438 0
-1037 446 0
-1038 438 0
-1038 446 0
-147 1033 1034 1035 1036 1037 1038 0
-1039 436 0
-1039 449 0
-1040 436 0
-1040 449 0
-1041 438 0
-1041 447 0
-1042 438 0
-1042 447 0
-1043 439 0
-1043 445 0
-1044 439 0
-1044 445 0
-148 1039 1040 1041 1042 1043 1044 0
-1045 437 0
-1045 445 0
-1046 437 0
-1046 445 0
-149 1045 1046 0
-1047 441 0
-1047 445 0
-1048 441 0
-1048 445 0
-150 1047 1048 0
-1049 440 0
-1049 445 0
-1050 440 0
-1050 445 0
-1051 442 0
-1051 449 0
-1052 442 0
-1052 449 0
-151 1049 1050 1051 1052 0
-1053 441 0
-1053 449 0
-1054 441 0
-1054 449 0
-152 1053 1054 0
-153 0
-1055 437 0
-1055 438 0
-1056 437 0
-1056 438 0
-1057 446 0
-1057 449 0
-1058 446 0
-1058 449 0
-154 1055 1056 1057 1058 0
-1059 451 0
-1059 451 0
-155 1059 0
-1060 451 0
-1060 454 0
-1061 451 0
-1061 454 0
-156 1060 1061 0
-1062 454 0
-1062 461 0
-1063 454 0
-1063 461 0
-1064 456 0
-1064 459 0
-1065 456 0
-1065 459 0
-157 1062 1063 1064 1065 0
-1066 451 0
-1066 452 0
-1067 451 0
-1067 452 0
-1068 453 0
-1068 461 0
-1069 453 0
-1069 461 0
-1070 456 0
-1070 469 0
-1071 456 0
-1071 469 0
-158 1066 1067 1068 1069 1070 1071 0
-1072 453 0
-1072 459 0
-1073 453 0
-1073 459 0
-1074 454 0
-1074 469 0
-1075 454 0
-1075 469 0
-1076 455 0
-1076 471 0
-1077 455 0
-1077 471 0
-159 1072 1073 1074 1075 1076 1077 0
-1078 457 0
-1078 472 0
-1079 457 0
-1079 472 0
-160 1078 1079 0
-1080 453 0
-1080 456 0
-1081 453 0
-1081 456 0
-1082 460 0
-1082 472 0
-1083 460 0
-1083 472 0
-1084 461 0
-1084 469 0
-1085 461 0
-1085 469 0
-161 1080 1081 1082 1083 1084 1085 0
-1086 459 0
-1086 472 0
-1087 459 0
-1087 472 0
-1088 461 0
-1088 470 0
-1089 461 0
-1089 470 0
-1090 462 0
-1090 468 0
-1091 462 0
-1091 468 0
-162 1086 1087 1088 1089 1090 1091 0
-1092 460 0
-1092 468 0
-1093 460 0
-1093 468 0
-163 1092 1093 0
-1094 464 0
-1094 468 0
-1095 464 0
-1095 468 0
-164 1094 1095 0
-1096 463 0
-1096 468 0
-1097 463 0
-1097 468 0
-1098 465 0
-1098 472 0
-1099 465 0
-1099 472 0
-165 1096 1097 1098 1099 0
-1100 464 0
-1100 472 0
-1101 464 0
-1101 472 0
-166 1100 1101 0
-167 0
-1102 460 0
-1102 461 0
-1103 460 0
-1103 461 0
-1104 469 0
-1104 472 0
-1105 469 0
-1105 472 0
-168 1102 1103 1104 1105 0
-1106 474 0
-1106 474 0
-169 1106 0
-1107 474 0
-1107 477 0
-1108 474 0
-1108 477 0
-170 1107 1108 0
-1109 477 0
-1109 484 0
-1110 477 0
-1110 484 0
-1111 479 0
-1111 482 0
-1112 479 0
-1112 482 0
-171 1109 1110 1111 1112 0
-1113 474 0
-1113 475 0
-1114 474 0
-1114 475 0
-1115 476 0
-1115 484 0
-1116 476 0
-1116 484 0
-1117 479 0
-1117 492 0
-1118 479 0
-1118 492 0
-172 1113 1114 1115 1116 1117 1118 0
-1119 476 0
-1119 482 0
-1120 476 0
-1120 482 0
-1121 477 0
-1121 492 0
-1122 477 0
-1122 492 0
-1123 478 0
-1123 494 0
-1124 478 0
-1124 494 0
-173 1119 1120 1121 1122 1123 1124 0
-1125 480 0
-1125 495 0
-1126 480 0
-1126 495 0
-174 1125 1126 0
-1127 476 0
-1127 479 0
-1128 476 0
-1128 479 0
-1129 483 0
-1129 495 0
-1130 483 0
-1130 495 0
-1131 484 0
-1131 492 0
-1132 484 0
-1132 492 0
-175 1127 1128 1129 1130 1131 1132 0
-1133 482 0
-1133 495 0
-1134 482 0
-1134 495 0
-1135 484 0
-1135 493 0
-1136 484 0
-1136 493 0
-1137 485 0
-1137 491 0
-1138 485 0
-1138 491 0
-176 1133 1134 1135 1136 1137 1138 0
-1139 483 0
-1139 491 0
-1140 483 0
-1140 491 0
-177 1139 1140 0
-1141 487 0
-1141 491 0
-1142 487 0
-1142 491 0
-178 1141 1142 0
-1143 486 0
-1143 491 0
-1144 486 0
-1144 491 0
-1145 488 0
-1145 495 0
-1146 488 0
-1146 495 0
-179 1143 1144 1145 1146 0
-1147 487 0
-1147 495 0
-1148 487 0
-1148 495 0
-180 1147 1148 0
-181 0
-1149 483 0
-1149 484 0
-1150 483 0
-1150 484 0
-1151 492 0
-1151 495 0
-1152 492 0
-1152 495 0
-182 1149 1150 1151 1152 0
-1153 497 0
-1153 497 0
-183 1153 0
-1154 497 0
-1154 500 0
-1155 497 0
-1155 500 0
-184 1154 1155 0
-1156 500 0
-1156 507 0
-1157 500 0
-1157 507 0
-1158 502 0
-1158 505 0
-1159 502 0
-1159 505 0
-185 1156 1157 1158 1159 0
-1160 497 0
-1160 498 0
-1161 497 0
-1161 498 0
-1162 499 0
-1162 507 0
-1163 499 0
-1163 507 0
-1164 502 0
-1164 515 0
-1165 502 0
-1165 515 0
-186 1160 1161 1162 1163 1164 1165 0
-1166 499 0
-1166 505 0
-1167 499 0
-1167 505 0
-1168 500 0
-1168 515 0
-1169 500 0
-1169 515 0
-1170 501 0
-1170 517 0
-1171 501 0
-1171 517 0
-187 1166 1167 1168 1169 1170 1171 0
-1172 503 0
-1172 518 0
-1173 503 0
-1173 518 0
-188 1172 1173 0
-1174 499 0
-1174 502 0
-1175 499 0
-1175 502 0
-1176 506 0
-1176 518 0
-1177 506 0
-1177 518 0
-1178 507 0
-1178 515 0
-1179 507 0
-1179 515 0
-189 1174 1175 1176 1177 1178 1179 0
-1180 505 0
-1180 518 0
-1181 505 0
-1181 518 0
-1182 507 0
-1182 516 0
-1183 507 0
-1183 516 0
-1184 508 0
-1184 514 0
-1185 508 0
-1185 514 0
-190 1180 1181 1182 1183 1184 1185 0
-1186 506 0
-1186 514 0
-1187 506 0
-1187 514 0
-191 1186 1187 0
-1188 510 0
-1188 514 0
-1189 510 0
-1189 514 0
-192 1188 1189 0
-1190 509 0
-1190 514 0
-1191 509 0
-1191 514 0
-1192 511 0
-1192 518 0
-1193 511 0
-1193 518 0
-193 1190 1191 1192 1193 0
-1194 510 0
-1194 518 0
-1195 510 0
-1195 518 0
-194 1194 1195 0
-195 0
-1196 506 0
-1196 507 0
-1197 506 0
-1197 507 0
-1198 515 0
-1198 518 0
-1199 515 0
-1199 518 0
-196 1196 1197 1198 1199 0
