p cnf 984 2518
-1 -2 0
-1 -3 0
-1 -4 0
-1 -5 0
-1 -6 0
-1 -7 0
-1 -8 0
-1 -9 0
-1 -10 0
-1 -11 0
-1 -12 0
-1 -13 0
-2 -3 0
-2 -4 0
-2 -5 0
-2 -6 0
-2 -7 0
-2 -8 0
-2 -9 0
-2 -10 0
-2 -11 0
-2 -12 0
-2 -13 0
-3 -4 0
-3 -5 0
-3 -6 0
-3 -7 0
-3 -8 0
-3 -9 0
-3 -10 0
-3 -11 0
-3 -12 0
-3 -13 0
-4 -5 0
-4 -6 0
-4 -7 0
-4 -8 0
-4 -9 0
-4 -10 0
-4 -11 0
-4 -12 0
-4 -13 0
-5 -6 0
-5 -7 0
-5 -8 0
-5 -9 0
-5 -10 0
-5 -11 0
-5 -12 0
-5 -13 0
-6 -7 0
-6 -8 0
-6 -9 0
-6 -10 0
-6 -11 0
-6 -12 0
-6 -13 0
-7 -8 0
-7 -9 0
-7 -10 0
-7 -11 0
-7 -12 0
-7 -13 0
-8 -9 0
-8 -10 0
-8 -11 0
-8 -12 0
-8 -13 0
-9 -10 0
-9 -11 0
-9 -12 0
-9 -13 0
-10 -11 0
-10 -12 0
-10 -13 0
-11 -12 0
-11 -13 0
-12 -13 0
-192 170 1 0
-193 171 2 0
-194 172 0
-195 173 3 0
-196 174 4 0
-197 175 5 0
-198 176 6 0
-199 177 0
-200 178 7 0
-201 179 8 0
-202 180 0
-203 181 9 0
-204 182 0
-205 183 10 0
-206 184 11 0
-207 185 12 0
-208 186 13 0
-209 187 0
-210 188 0
-211 189 0
-212 190 0
-213 191 0
-14 -15 0
-14 -16 0
-14 -17 0
-14 -18 0
-14 -19 0
-14 -20 0
-14 -21 0
-14 -22 0
-14 -23 0
-14 -24 0
-14 -25 0
-14 -26 0
-15 -16 0
-15 -17 0
-15 -18 0
-15 -19 0
-15 -20 0
-15 -21 0
-15 -22 0
-15 -23 0
-15 -24 0
-15 -25 0
-15 -26 0
-16 -17 0
-16 -18 0
-16 -19 0
-16 -20 0
-16 -21 0
-16 -22 0
-16 -23 0
-16 -24 0
-16 -25 0
-16 -26 0
-17 -18 0
-17 -19 0
-17 -20 0
-17 -21 0
-17 -22 0
-17 -23 0
-17 -24 0
-17 -25 0
-17 -26 0
-18 -19 0
-18 -20 0
-18 -21 0
-18 -22 0
-18 -23 0
-18 -24 0
-18 -25 0
-18 -26 0
-19 -20 0
-19 -21 0
-19 -22 0
-19 -23 0
-19 -24 0
-19 -25 0
-19 -26 0
-20 -21 0
-20 -22 0
-20 -23 0
-20 -24 0
-20 -25 0
-20 -26 0
-21 -22 0
-21 -23 0
-21 -24 0
-21 -25 0
-21 -26 0
-22 -23 0
-22 -24 0
-22 -25 0
-22 -26 0
-23 -24 0
-23 -25 0
-23 -26 0
-24 -25 0
-24 -26 0
-25 -26 0
-214 192 14 0
-215 193 15 0
-216 194 0
-217 195 16 0
-218 196 17 0
-219 197 18 0
-220 198 19 0
-221 199 0
-222 200 20 0
-223 201 21 0
-224 202 0
-225 203 22 0
-226 204 0
-227 205 23 0
-228 206 24 0
-229 207 25 0
-230 208 26 0
-231 209 0
-232 210 0
-233 211 0
-234 212 0
-235 213 0
-27 -28 0
-27 -29 0
-27 -30 0
-27 -31 0
-27 -32 0
-27 -33 0
-27 -34 0
-27 -35 0
-27 -36 0
-27 -37 0
-27 -38 0
-27 -39 0
-28 -29 0
-28 -30 0
-28 -31 0
-28 -32 0
-28 -33 0
-28 -34 0
-28 -35 0
-28 -36 0
-28 -37 0
-28 -38 0
-28 -39 0
-29 -30 0
-29 -31 0
-29 -32 0
-29 -33 0
-29 -34 0
-29 -35 0
-29 -36 0
-29 -37 0
-29 -38 0
-29 -39 0
-30 -31 0
-30 -32 0
-30 -33 0
-30 -34 0
-30 -35 0
-30 -36 0
-30 -37 0
-30 -38 0
-30 -39 0
-31 -32 0
-31 -33 0
-31 -34 0
-31 -35 0
-31 -36 0
-31 -37 0
-31 -38 0
-31 -39 0
-32 -33 0
-32 -34 0
-32 -35 0
-32 -36 0
-32 -37 0
-32 -38 0
-32 -39 0
-33 -34 0
-33 -35 0
-33 -36 0
-33 -37 0
-33 -38 0
-33 -39 0
-34 -35 0
-34 -36 0
-34 -37 0
-34 -38 0
-34 -39 0
-35 -36 0
-35 -37 0
-35 -38 0
-35 -39 0
-36 -37 0
-36 -38 0
-36 -39 0
-37 -38 0
-37 -39 0
-38 -39 0
-236 214 27 0
-237 215 28 0
-238 216 0
-239 217 29 0
-240 218 30 0
-241 219 31 0
-242 220 32 0
-243 221 0
-244 222 33 0
-245 223 34 0
-246 224 0
-247 225 35 0
-248 226 0
-249 227 36 0
-250 228 37 0
-251 229 38 0
-252 230 39 0
-253 231 0
-254 232 0
-255 233 0
-256 234 0
-257 235 0
-40 -41 0
-40 -42 0
-40 -43 0
-40 -44 0
-40 -45 0
-40 -46 0
-40 -47 0
-40 -48 0
-40 -49 0
-40 -50 0
-40 -51 0
-40 -52 0
-41 -42 0
-41 -43 0
-41 -44 0
-41 -45 0
-41 -46 0
-41 -47 0
-41 -48 0
-41 -49 0
-41 -50 0
-41 -51 0
-41 -52 0
-42 -43 0
-42 -44 0
-42 -45 0
-42 -46 0
-42 -47 0
-42 -48 0
-42 -49 0
-42 -50 0
-42 -51 0
-42 -52 0
-43 -44 0
-43 -45 0
-43 -46 0
-43 -47 0
-43 -48 0
-43 -49 0
-43 -50 0
-43 -51 0
-43 -52 0
-44 -45 0
-44 -46 0
-44 -47 0
-44 -48 0
-44 -49 0
-44 -50 0
-44 -51 0
-44 -52 0
-45 -46 0
-45 -47 0
-45 -48 0
-45 -49 0
-45 -50 0
-45 -51 0
-45 -52 0
-46 -47 0
-46 -48 0
-46 -49 0
-46 -50 0
-46 -51 0
-46 -52 0
-47 -48 0
-47 -49 0
-47 -50 0
-47 -51 0
-47 -52 0
-48 -49 0
-48 -50 0
-48 -51 0
-48 -52 0
-49 -50 0
-49 -51 0
-49 -52 0
-50 -51 0
-50 -52 0
-51 -52 0
-258 236 40 0
-259 237 41 0
-260 238 0
-261 239 42 0
-262 240 43 0
-263 241 44 0
-264 242 45 0
-265 243 0
-266 244 46 0
-267 245 47 0
-268 246 0
-269 247 48 0
-270 248 0
-271 249 49 0
-272 250 50 0
-273 251 51 0
-274 252 52 0
-275 253 0
-276 254 0
-277 255 0
-278 256 0
-279 257 0
-53 -54 0
-53 -55 0
-53 -56 0
-53 -57 0
-53 -58 0
-53 -59 0
-53 -60 0
-53 -61 0
-53 -62 0
-53 -63 0
-53 -64 0
-53 -65 0
-54 -55 0
-54 -56 0
-54 -57 0
-54 -58 0
-54 -59 0
-54 -60 0
-54 -61 0
-54 -62 0
-54 -63 0
-54 -64 0
-54 -65 0
-55 -56 0
-55 -57 0
-55 -58 0
-55 -59 0
-55 -60 0
-55 -61 0
-55 -62 0
-55 -63 0
-55 -64 0
-55 -65 0
-56 -57 0
-56 -58 0
-56 -59 0
-56 -60 0
-56 -61 0
-56 -62 0
-56 -63 0
-56 -64 0
-56 -65 0
-57 -58 0
-57 -59 0
-57 -60 0
-57 -61 0
-57 -62 0
-57 -63 0
-57 -64 0
-57 -65 0
-58 -59 0
-58 -60 0
-58 -61 0
-58 -62 0
-58 -63 0
-58 -64 0
-58 -65 0
-59 -60 0
-59 -61 0
-59 -62 0
-59 -63 0
-59 -64 0
-59 -65 0
-60 -61 0
-60 -62 0
-60 -63 0
-60 -64 0
-60 -65 0
-61 -62 0
-61 -63 0
-61 -64 0
-61 -65 0
-62 -63 0
-62 -64 0
-62 -65 0
-63 -64 0
-63 -65 0
-64 -65 0
-280 258 53 0
-281 259 54 0
-282 260 0
-283 261 55 0
-284 262 56 0
-285 263 57 0
-286 264 58 0
-287 265 0
-288 266 59 0
-289 267 60 0
-290 268 0
-291 269 61 0
-292 270 0
-293 271 62 0
-294 272 63 0
-295 273 64 0
-296 274 65 0
-297 275 0
-298 276 0
-299 277 0
-300 278 0
-301 279 0
-66 -67 0
-66 -68 0
-66 -69 0
-66 -70 0
-66 -71 0
-66 -72 0
-66 -73 0
-66 -74 0
-66 -75 0
-66 -76 0
-66 -77 0
-66 -78 0
-67 -68 0
-67 -69 0
-67 -70 0
-67 -71 0
-67 -72 0
-67 -73 0
-67 -74 0
-67 -75 0
-67 -76 0
-67 -77 0
-67 -78 0
-68 -69 0
-68 -70 0
-68 -71 0
-68 -72 0
-68 -73 0
-68 -74 0
-68 -75 0
-68 -76 0
-68 -77 0
-68 -78 0
-69 -70 0
-69 -71 0
-69 -72 0
-69 -73 0
-69 -74 0
-69 -75 0
-69 -76 0
-69 -77 0
-69 -78 0
-70 -71 0
-70 -72 0
-70 -73 0
-70 -74 0
-70 -75 0
-70 -76 0
-70 -77 0
-70 -78 0
-71 -72 0
-71 -73 0
-71 -74 0
-71 -75 0
-71 -76 0
-71 -77 0
-71 -78 0
-72 -73 0
-72 -74 0
-72 -75 0
-72 -76 0
-72 -77 0
-72 -78 0
-73 -74 0
-73 -75 0
-73 -76 0
-73 -77 0
-73 -78 0
-74 -75 0
-74 -76 0
-74 -77 0
-74 -78 0
-75 -76 0
-75 -77 0
-75 -78 0
-76 -77 0
-76 -78 0
-77 -78 0
-302 280 66 0
-303 281 67 0
-304 282 0
-305 283 68 0
-306 284 69 0
-307 285 70 0
-308 286 71 0
-309 287 0
-310 288 72 0
-311 289 73 0
-312 290 0
-313 291 74 0
-314 292 0
-315 293 75 0
-316 294 76 0
-317 295 77 0
-318 296 78 0
-319 297 0
-320 298 0
-321 299 0
-322 300 0
-323 301 0
-79 -80 0
-79 -81 0
-79 -82 0
-79 -83 0
-79 -84 0
-79 -85 0
-79 -86 0
-79 -87 0
-79 -88 0
-79 -89 0
-79 -90 0
-79 -91 0
-80 -81 0
-80 -82 0
-80 -83 0
-80 -84 0
-80 -85 0
-80 -86 0
-80 -87 0
-80 -88 0
-80 -89 0
-80 -90 0
-80 -91 0
-81 -82 0
-81 -83 0
-81 -84 0
-81 -85 0
-81 -86 0
-81 -87 0
-81 -88 0
-81 -89 0
-81 -90 0
-81 -91 0
-82 -83 0
-82 -84 0
-82 -85 0
-82 -86 0
-82 -87 0
-82 -88 0
-82 -89 0
-82 -90 0
-82 -91 0
-83 -84 0
-83 -85 0
-83 -86 0
-83 -87 0
-83 -88 0
-83 -89 0
-83 -90 0
-83 -91 0
-84 -85 0
-84 -86 0
-84 -87 0
-84 -88 0
-84 -89 0
-84 -90 0
-84 -91 0
-85 -86 0
-85 -87 0
-85 -88 0
-85 -89 0
-85 -90 0
-85 -91 0
-86 -87 0
-86 -88 0
-86 -89 0
-86 -90 0
-86 -91 0
-87 -88 0
-87 -89 0
-87 -90 0
-87 -91 0
-88 -89 0
-88 -90 0
-88 -91 0
-89 -90 0
-89 -91 0
-90 -91 0
-324 302 79 0
-325 303 80 0
-326 304 0
-327 305 81 0
-328 306 82 0
-329 307 83 0
-330 308 84 0
-331 309 0
-332 310 85 0
-333 311 86 0
-334 312 0
-335 313 87 0
-336 314 0
-337 315 88 0
-338 316 89 0
-339 317 90 0
-340 318 91 0
-341 319 0
-342 320 0
-343 321 0
-344 322 0
-345 323 0
-92 -93 0
-92 -94 0
-92 -95 0
-92 -96 0
-92 -97 0
-92 -98 0
-92 -99 0
-92 -100 0
-92 -101 0
-92 -102 0
-92 -103 0
-92 -104 0
-93 -94 0
-93 -95 0
-93 -96 0
-93 -97 0
-93 -98 0
-93 -99 0
-93 -100 0
-93 -101 0
-93 -102 0
-93 -103 0
-93 -104 0
-94 -95 0
-94 -96 0
-94 -97 0
-94 -98 0
-94 -99 0
-94 -100 0
-94 -101 0
-94 -102 0
-94 -103 0
-94 -104 0
-95 -96 0
-95 -97 0
-95 -98 0
-95 -99 0
-95 -100 0
-95 -101 0
-95 -102 0
-95 -103 0
-95 -104 0
-96 -97 0
-96 -98 0
-96 -99 0
-96 -100 0
-96 -101 0
-96 -102 0
-96 -103 0
-96 -104 0
-97 -98 0
-97 -99 0
-97 -100 0
-97 -101 0
-97 -102 0
-97 -103 0
-97 -104 0
-98 -99 0
-98 -100 0
-98 -101 0
-98 -102 0
-98 -103 0
-98 -104 0
-99 -100 0
-99 -101 0
-99 -102 0
-99 -103 0
-99 -104 0
-100 -101 0
-100 -102 0
-100 -103 0
-100 -104 0
-101 -102 0
-101 -103 0
-101 -104 0
-102 -103 0
-102 -104 0
-103 -104 0
-346 324 92 0
-347 325 93 0
-348 326 0
-349 327 94 0
-350 328 95 0
-351 329 96 0
-352 330 97 0
-353 331 0
-354 332 98 0
-355 333 99 0
-356 334 0
-357 335 100 0
-358 336 0
-359 337 101 0
-360 338 102 0
-361 339 103 0
-362 340 104 0
-363 341 0
-364 342 0
-365 343 0
-366 344 0
-367 345 0
-105 -106 0
-105 -107 0
-105 -108 0
-105 -109 0
-105 -110 0
-105 -111 0
-105 -112 0
-105 -113 0
-105 -114 0
-105 -115 0
-105 -116 0
-105 -117 0
-106 -107 0
-106 -108 0
-106 -109 0
-106 -110 0
-106 -111 0
-106 -112 0
-106 -113 0
-106 -114 0
-106 -115 0
-106 -116 0
-106 -117 0
-107 -108 0
-107 -109 0
-107 -110 0
-107 -111 0
-107 -112 0
-107 -113 0
-107 -114 0
-107 -115 0
-107 -116 0
-107 -117 0
-108 -109 0
-108 -110 0
-108 -111 0
-108 -112 0
-108 -113 0
-108 -114 0
-108 -115 0
-108 -116 0
-108 -117 0
-109 -110 0
-109 -111 0
-109 -112 0
-109 -113 0
-109 -114 0
-109 -115 0
-109 -116 0
-109 -117 0
-110 -111 0
-110 -112 0
-110 -113 0
-110 -114 0
-110 -115 0
-110 -116 0
-110 -117 0
-111 -112 0
-111 -113 0
-111 -114 0
-111 -115 0
-111 -116 0
-111 -117 0
-112 -113 0
-112 -114 0
-112 -115 0
-112 -116 0
-112 -117 0
-113 -114 0
-113 -115 0
-113 -116 0
-113 -117 0
-114 -115 0
-114 -116 0
-114 -117 0
-115 -116 0
-115 -117 0
-116 -117 0
-368 346 105 0
-369 347 106 0
-370 348 0
-371 349 107 0
-372 350 108 0
-373 351 109 0
-374 352 110 0
-375 353 0
-376 354 111 0
-377 355 112 0
-378 356 0
-379 357 113 0
-380 358 0
-381 359 114 0
-382 360 115 0
-383 361 116 0
-384 362 117 0
-385 363 0
-386 364 0
-387 365 0
-388 366 0
-389 367 0
-118 -119 0
-118 -120 0
-118 -121 0
-118 -122 0
-118 -123 0
-118 -124 0
-118 -125 0
-118 -126 0
-118 -127 0
-118 -128 0
-118 -129 0
-118 -130 0
-119 -120 0
-119 -121 0
-119 -122 0
-119 -123 0
-119 -124 0
-119 -125 0
-119 -126 0
-119 -127 0
-119 -128 0
-119 -129 0
-119 -130 0
-120 -121 0
-120 -122 0
-120 -123 0
-120 -124 0
-120 -125 0
-120 -126 0
-120 -127 0
-120 -128 0
-120 -129 0
-120 -130 0
-121 -122 0
-121 -123 0
-121 -124 0
-121 -125 0
-121 -126 0
-121 -127 0
-121 -128 0
-121 -129 0
-121 -130 0
-122 -123 0
-122 -124 0
-122 -125 0
-122 -126 0
-122 -127 0
-122 -128 0
-122 -129 0
-122 -130 0
-123 -124 0
-123 -125 0
-123 -126 0
-123 -127 0
-123 -128 0
-123 -129 0
-123 -130 0
-124 -125 0
-124 -126 0
-124 -127 0
-124 -128 0
-124 -129 0
-124 -130 0
-125 -126 0
-125 -127 0
-125 -128 0
-125 -129 0
-125 -130 0
-126 -127 0
-126 -128 0
-126 -129 0
-126 -130 0
-127 -128 0
-127 -129 0
-127 -130 0
-128 -129 0
-128 -130 0
-129 -130 0
-390 368 118 0
-391 369 119 0
-392 370 0
-393 371 120 0
-394 372 121 0
-395 373 122 0
-396 374 123 0
-397 375 0
-398 376 124 0
-399 377 125 0
-400 378 0
-401 379 126 0
-402 380 0
-403 381 127 0
-404 382 128 0
-405 383 129 0
-406 384 130 0
-407 385 0
-408 386 0
-409 387 0
-410 388 0
-411 389 0
-131 -132 0
-131 -133 0
-131 -134 0
-131 -135 0
-131 -136 0
-131 -137 0
-131 -138 0
-131 -139 0
-131 -140 0
-131 -141 0
-131 -142 0
-131 -143 0
-132 -133 0
-132 -134 0
-132 -135 0
-132 -136 0
-132 -137 0
-132 -138 0
-132 -139 0
-132 -140 0
-132 -141 0
-132 -142 0
-132 -143 0
-133 -134 0
-133 -135 0
-133 -136 0
-133 -137 0
-133 -138 0
-133 -139 0
-133 -140 0
-133 -141 0
-133 -142 0
-133 -143 0
-134 -135 0
-134 -136 0
-134 -137 0
-134 -138 0
-134 -139 0
-134 -140 0
-134 -141 0
-134 -142 0
-134 -143 0
-135 -136 0
-135 -137 0
-135 -138 0
-135 -139 0
-135 -140 0
-135 -141 0
-135 -142 0
-135 -143 0
-136 -137 0
-136 -138 0
-136 -139 0
-136 -140 0
-136 -141 0
-136 -142 0
-136 -143 0
-137 -138 0
-137 -139 0
-137 -140 0
-137 -141 0
-137 -142 0
-137 -143 0
-138 -139 0
-138 -140 0
-138 -141 0
-138 -142 0
-138 -143 0
-139 -140 0
-139 -141 0
-139 -142 0
-139 -143 0
-140 -141 0
-140 -142 0
-140 -143 0
-141 -142 0
-141 -143 0
-142 -143 0
-412 390 131 0
-413 391 132 0
-414 392 0
-415 393 133 0
-416 394 134 0
-417 395 135 0
-418 396 136 0
-419 397 0
-420 398 137 0
-421 399 138 0
-422 400 0
-423 401 139 0
-424 402 0
-425 403 140 0
-426 404 141 0
-427 405 142 0
-428 406 143 0
-429 407 0
-430 408 0
-431 409 0
-432 410 0
-433 411 0
-144 -145 0
-144 -146 0
-144 -147 0
-144 -148 0
-144 -149 0
-144 -150 0
-144 -151 0
-144 -152 0
-144 -153 0
-144 -154 0
-144 -155 0
-144 -156 0
-145 -146 0
-145 -147 0
-145 -148 0
-145 -149 0
-145 -150 0
-145 -151 0
-145 -152 0
-145 -153 0
-145 -154 0
-145 -155 0
-145 -156 0
-146 -147 0
-146 -148 0
-146 -149 0
-146 -150 0
-146 -151 0
-146 -152 0
-146 -153 0
-146 -154 0
-146 -155 0
-146 -156 0
-147 -148 0
-147 -149 0
-147 -150 0
-147 -151 0
-147 -152 0
-147 -153 0
-147 -154 0
-147 -155 0
-147 -156 0
-148 -149 0
-148 -150 0
-148 -151 0
-148 -152 0
-148 -153 0
-148 -154 0
-148 -155 0
-148 -156 0
-149 -150 0
-149 -151 0
-149 -152 0
-149 -153 0
-149 -154 0
-149 -155 0
-149 -156 0
-150 -151 0
-150 -152 0
-150 -153 0
-150 -154 0
-150 -155 0
-150 -156 0
-151 -152 0
-151 -153 0
-151 -154 0
-151 -155 0
-151 -156 0
-152 -153 0
-152 -154 0
-152 -155 0
-152 -156 0
-153 -154 0
-153 -155 0
-153 -156 0
-154 -155 0
-154 -156 0
-155 -156 0
-434 412 144 0
-435 413 145 0
-436 414 0
-437 415 146 0
-438 416 147 0
-439 417 148 0
-440 418 149 0
-441 419 0
-442 420 150 0
-443 421 151 0
-444 422 0
-445 423 152 0
-446 424 0
-447 425 153 0
-448 426 154 0
-449 427 155 0
-450 428 156 0
-451 429 0
-452 430 0
-453 431 0
-454 432 0
-455 433 0
-157 -158 0
-157 -159 0
-157 -160 0
-157 -161 0
-157 -162 0
-157 -163 0
-157 -164 0
-157 -165 0
-157 -166 0
-157 -167 0
-157 -168 0
-157 -169 0
-158 -159 0
-158 -160 0
-158 -161 0
-158 -162 0
-158 -163 0
-158 -164 0
-158 -165 0
-158 -166 0
-158 -167 0
-158 -168 0
-158 -169 0
-159 -160 0
-159 -161 0
-159 -162 0
-159 -163 0
-159 -164 0
-159 -165 0
-159 -166 0
-159 -167 0
-159 -168 0
-159 -169 0
-160 -161 0
-160 -162 0
-160 -163 0
-160 -164 0
-160 -165 0
-160 -166 0
-160 -167 0
-160 -168 0
-160 -169 0
-161 -162 0
-161 -163 0
-161 -164 0
-161 -165 0
-161 -166 0
-161 -167 0
-161 -168 0
-161 -169 0
-162 -163 0
-162 -164 0
-162 -165 0
-162 -166 0
-162 -167 0
-162 -168 0
-162 -169 0
-163 -164 0
-163 -165 0
-163 -166 0
-163 -167 0
-163 -168 0
-163 -169 0
-164 -165 0
-164 -166 0
-164 -167 0
-164 -168 0
-164 -169 0
-165 -166 0
-165 -167 0
-165 -168 0
-165 -169 0
-166 -167 0
-166 -168 0
-166 -169 0
-167 -168 0
-167 -169 0
-168 -169 0
-456 434 157 0
-457 435 158 0
-458 436 0
-459 437 159 0
-460 438 160 0
-461 439 161 0
-462 440 162 0
-463 441 0
-464 442 163 0
-465 443 164 0
-466 444 0
-467 445 165 0
-468 446 0
-469 447 166 0
-470 448 167 0
-471 449 168 0
-472 450 169 0
-473 451 0
-474 452 0
-475 453 0
-476 454 0
-477 455 0
-170 0
-171 0
172 0
-173 0
-174 0
-175 0
-176 0
177 0
-178 0
-179 0
180 0
-181 0
182 0
-183 0
-184 0
-185 0
-186 0
187 0
188 0
189 0
190 0
191 0
1 14 27 40 53 66 79 92 105 118 131 144 157 0
2 15 28 41 54 67 80 93 106 119 132 145 158 0
3 16 29 42 55 68 81 94 107 120 133 146 159 0
4 17 30 43 56 69 82 95 108 121 134 147 160 0
5 18 31 44 57 70 83 96 109 122 135 148 161 0
6 19 32 45 58 71 84 97 110 123 136 149 162 0
7 20 33 46 59 72 85 98 111 124 137 150 163 0
8 21 34 47 60 73 86 99 112 125 138 151 164 0
9 22 35 48 61 74 87 100 113 126 139 152 165 0
10 23 36 49 62 75 88 101 114 127 140 153 166 0
11 24 37 50 63 76 89 102 115 128 141 154 167 0
12 25 38 51 64 77 90 103 116 129 142 155 168 0
13 26 39 52 65 78 91 104 117 130 143 156 169 0
-478 171 0
-478 171 0
-1 478 0
-479 170 0
-479 171 0
-480 170 0
-480 171 0
-481 172 0
-481 175 0
-482 172 0
-482 175 0
-2 479 480 481 482 0
-3 0
-483 175 0
-483 190 0
-484 175 0
-484 190 0
-4 483 484 0
-485 171 0
-485 172 0
-486 171 0
-486 172 0
-487 174 0
-487 190 0
-488 174 0
-488 190 0
-489 176 0
-489 189 0
-490 176 0
-490 189 0
-491 177 0
-491 178 0
-492 177 0
-492 178 0
-5 485 486 487 488 489 490 491 492 0
-493 175 0
-493 189 0
-494 175 0
-494 189 0
-6 493 494 0
-495 175 0
-495 177 0
-496 175 0
-496 177 0
-497 179 0
-497 187 0
-498 179 0
-498 187 0
-499 180 0
-499 184 0
-500 180 0
-500 184 0
-7 495 496 497 498 499 500 0
-501 178 0
-501 187 0
-502 178 0
-502 187 0
-503 180 0
-503 188 0
-504 180 0
-504 188 0
-505 181 0
-505 182 0
-506 181 0
-506 182 0
-8 501 502 503 504 505 506 0
-507 179 0
-507 182 0
-508 179 0
-508 182 0
-9 507 508 0
-10 0
-509 178 0
-509 180 0
-510 178 0
-510 180 0
-511 185 0
-511 191 0
-512 185 0
-512 191 0
-513 187 0
-513 188 0
-514 187 0
-514 188 0
-11 509 510 511 512 513 514 0
-515 184 0
-515 191 0
-516 184 0
-516 191 0
-12 515 516 0
-13 0
-517 193 0
-517 193 0
-14 517 0
-518 192 0
-518 193 0
-519 192 0
-519 193 0
-520 194 0
-520 197 0
-521 194 0
-521 197 0
-15 518 519 520 521 0
-16 0
-522 197 0
-522 212 0
-523 197 0
-523 212 0
-17 522 523 0
-524 193 0
-524 194 0
-525 193 0
-525 194 0
-526 196 0
-526 212 0
-527 196 0
-527 212 0
-528 198 0
-528 211 0
-529 198 0
-529 211 0
-530 199 0
-530 200 0
-531 199 0
-531 200 0
-18 524 525 526 527 528 529 530 531 0
-532 197 0
-532 211 0
-533 197 0
-533 211 0
-19 532 533 0
-534 197 0
-534 199 0
-535 197 0
-535 199 0
-536 201 0
-536 209 0
-537 201 0
-537 209 0
-538 202 0
-538 206 0
-539 202 0
-539 206 0
-20 534 535 536 537 538 539 0
-540 200 0
-540 209 0
-541 200 0
-541 209 0
-542 202 0
-542 210 0
-543 202 0
-543 210 0
-544 203 0
-544 204 0
-545 203 0
-545 204 0
-21 540 541 542 543 544 545 0
-546 201 0
-546 204 0
-547 201 0
-547 204 0
-22 546 547 0
-23 0
-548 200 0
-548 202 0
-549 200 0
-549 202 0
-550 207 0
-550 213 0
-551 207 0
-551 213 0
-552 209 0
-552 210 0
-553 209 0
-553 210 0
-24 548 549 550 551 552 553 0
-554 206 0
-554 213 0
-555 206 0
-555 213 0
-25 554 555 0
-26 0
-556 215 0
-556 215 0
-27 556 0
-557 214 0
-557 215 0
-558 214 0
-558 215 0
-559 216 0
-559 219 0
-560 216 0
-560 219 0
-28 557 558 559 560 0
-29 0
-561 219 0
-561 234 0
-562 219 0
-562 234 0
-30 561 562 0
-563 215 0
-563 216 0
-564 215 0
-564 216 0
-565 218 0
-565 234 0
-566 218 0
-566 234 0
-567 220 0
-567 233 0
-568 220 0
-568 233 0
-569 221 0
-569 222 0
-570 221 0
-570 222 0
-31 563 564 565 566 567 568 569 570 0
-571 219 0
-571 233 0
-572 219 0
-572 233 0
-32 571 572 0
-573 219 0
-573 221 0
-574 219 0
-574 221 0
-575 223 0
-575 231 0
-576 223 0
-576 231 0
-577 224 0
-577 228 0
-578 224 0
-578 228 0
-33 573 574 575 576 577 578 0
-579 222 0
-579 231 0
-580 222 0
-580 231 0
-581 224 0
-581 232 0
-582 224 0
-582 232 0
-583 225 0
-583 226 0
-584 225 0
-584 226 0
-34 579 580 581 582 583 584 0
-585 223 0
-585 226 0
-586 223 0
-586 226 0
-35 585 586 0
-36 0
-587 222 0
-587 224 0
-588 222 0
-588 224 0
-589 229 0
-589 235 0
-590 229 0
-590 235 0
-591 231 0
-591 232 0
-592 231 0
-592 232 0
-37 587 588 589 590 591 592 0
-593 228 0
-593 235 0
-594 228 0
-594 235 0
-38 593 594 0
-39 0
-595 237 0
-595 237 0
-40 595 0
-596 236 0
-596 237 0
-597 236 0
-597 237 0
-598 238 0
-598 241 0
-599 238 0
-599 241 0
-41 596 597 598 599 0
-42 0
-600 241 0
-600 256 0
-601 241 0
-601 256 0
-43 600 601 0
-602 237 0
-602 238 0
-603 237 0
-603 238 0
-604 240 0
-604 256 0
-605 240 0
-605 256 0
-606 242 0
-606 255 0
-607 242 0
-607 255 0
-608 243 0
-608 244 0
-609 243 0
-609 244 0
-44 602 603 604 605 606 607 608 609 0
-610 241 0
-610 255 0
-611 241 0
-611 255 0
-45 610 611 0
-612 241 0
-612 243 0
-613 241 0
-613 243 0
-614 245 0
-614 253 0
-615 245 0
-615 253 0
-616 246 0
-616 250 0
-617 246 0
-617 250 0
-46 612 613 614 615 616 617 0
-618 244 0
-618 253 0
-619 244 0
-619 253 0
-620 246 0
-620 254 0
-621 246 0
-621 254 0
-622 247 0
-622 248 0
-623 247 0
-623 248 0
-47 618 619 620 621 622 623 0
-624 245 0
-624 248 0
-625 245 0
-625 248 0
-48 624 625 0
-49 0
-626 244 0
-626 246 0
-627 244 0
-627 246 0
-628 251 0
-628 257 0
-629 251 0
-629 257 0
-630 253 0
-630 254 0
-631 253 0
-631 254 0
-50 626 627 628 629 630 631 0
-632 250 0
-632 257 0
-633 250 0
-633 257 0
-51 632 633 0
-52 0
-634 259 0
-634 259 0
-53 634 0
-635 258 0
-635 259 0
-636 258 0
-636 259 0
-637 260 0
-637 263 0
-638 260 0
-638 263 0
-54 635 636 637 638 0
-55 0
-639 263 0
-639 278 0
-640 263 0
-640 278 0
-56 639 640 0
-641 259 0
-641 260 0
-642 259 0
-642 260 0
-643 262 0
-643 278 0
-644 262 0
-644 278 0
-645 264 0
-645 277 0
-646 264 0
-646 277 0
-647 265 0
-647 266 0
-648 265 0
-648 266 0
-57 641 642 643 644 645 646 647 648 0
-649 263 0
-649 277 0
-650 263 0
-650 277 0
-58 649 650 0
-651 263 0
-651 265 0
-652 263 0
-652 265 0
-653 267 0
-653 275 0
-654 267 0
-654 275 0
-655 268 0
-655 272 0
-656 268 0
-656 272 0
-59 651 652 653 654 655 656 0
-657 266 0
-657 275 0
-658 266 0
-658 275 0
-659 268 0
-659 276 0
-660 268 0
-660 276 0
-661 269 0
-661 270 0
-662 269 0
-662 270 0
-60 657 658 659 660 661 662 0
-663 267 0
-663 270 0
-664 267 0
-664 270 0
-61 663 664 0
-62 0
-665 266 0
-665 268 0
-666 266 0
-666 268 0
-667 273 0
-667 279 0
-668 273 0
-668 279 0
-669 275 0
-669 276 0
-670 275 0
-670 276 0
-63 665 666 667 668 669 670 0
-671 272 0
-671 279 0
-672 272 0
-672 279 0
-64 671 672 0
-65 0
-673 281 0
-673 281 0
-66 673 0
-674 280 0
-674 281 0
-675 280 0
-675 281 0
-676 282 0
-676 285 0
-677 282 0
-677 285 0
-67 674 675 676 677 0
-68 0
-678 285 0
-678 300 0
-679 285 0
-679 300 0
-69 678 679 0
-680 281 0
-680 282 0
-681 281 0
-681 282 0
-682 284 0
-682 300 0
-683 284 0
-683 300 0
-684 286 0
-684 299 0
-685 286 0
-685 299 0
-686 287 0
-686 288 0
-687 287 0
-687 288 0
-70 680 681 682 683 684 685 686 687 0
-688 285 0
-688 299 0
-689 285 0
-689 299 0
-71 688 689 0
-690 285 0
-690 287 0
-691 285 0
-691 287 0
-692 289 0
-692 297 0
-693 289 0
-693 297 0
-694 290 0
-694 294 0
-695 290 0
-695 294 0
-72 690 691 692 693 694 695 0
-696 288 0
-696 297 0
-697 288 0
-697 297 0
-698 290 0
-698 298 0
-699 290 0
-699 298 0
-700 291 0
-700 292 0
-701 291 0
-701 292 0
-73 696 697 698 699 700 701 0
-702 289 0
-702 292 0
-703 289 0
-703 292 0
-74 702 703 0
-75 0
-704 288 0
-704 290 0
-705 288 0
-705 290 0
-706 295 0
-706 301 0
-707 295 0
-707 301 0
-708 297 0
-708 298 0
-709 297 0
-709 298 0
-76 704 705 706 707 708 709 0
-710 294 0
-710 301 0
-711 294 0
-711 301 0
-77 710 711 0
-78 0
-712 303 0
-712 303 0
-79 712 0
-713 302 0
-713 303 0
-714 302 0
-714 303 0
-715 304 0
-715 307 0
-716 304 0
-716 307 0
-80 713 714 715 716 0
-81 0
-717 307 0
-717 322 0
-718 307 0
-718 322 0
-82 717 718 0
-719 303 0
-719 304 0
-720 303 0
-720 304 0
-721 306 0
-721 322 0
-722 306 0
-722 322 0
-723 308 0
-723 321 0
-724 308 0
-724 321 0
-725 309 0
-725 310 0
-726 309 0
-726 310 0
-83 719 720 721 722 723 724 725 726 0
-727 307 0
-727 321 0
-728 307 0
-728 321 0
-84 727 728 0
-729 307 0
-729 309 0
-730 307 0
-730 309 0
-731 311 0
-731 319 0
-732 311 0
-732 319 0
-733 312 0
-733 316 0
-734 312 0
-734 316 0
-85 729 730 731 732 733 734 0
-735 310 0
-735 319 0
-736 310 0
-736 319 0
-737 312 0
-737 320 0
-738 312 0
-738 320 0
-739 313 0
-739 314 0
-740 313 0
-740 314 0
-86 735 736 737 738 739 740 0
-741 311 0
-741 314 0
-742 311 0
-742 314 0
-87 741 742 0
-88 0
-743 310 0
-743 312 0
-744 310 0
-744 312 0
-745 317 0
-745 323 0
-746 317 0
-746 323 0
-747 319 0
-747 320 0
-748 319 0
-748 320 0
-89 743 744 745 746 747 748 0
-749 316 0
-749 323 0
-750 316 0
-750 323 0
-90 749 750 0
-91 0
-751 325 0
-751 325 0
-92 751 0
-752 324 0
-752 325 0
-753 324 0
-753 325 0
-754 326 0
-754 329 0
-755 326 0
-755 329 0
-93 752 753 754 755 0
-94 0
-756 329 0
-756 344 0
-757 329 0
-757 344 0
-95 756 757 0
-758 325 0
-758 326 0
-759 325 0
-759 326 0
-760 328 0
-760 344 0
-761 328 0
-761 344 0
-762 330 0
-762 343 0
-763 330 0
-763 343 0
-764 331 0
-764 332 0
-765 331 0
-765 332 0
-96 758 759 760 761 762 763 764 765 0
-766 329 0
-766 343 0
-767 329 0
-767 343 0
-97 766 767 0
-768 329 0
-768 331 0
-769 329 0
-769 331 0
-770 333 0
-770 341 0
-771 333 0
-771 341 0
-772 334 0
-772 338 0
-773 334 0
-773 338 0
-98 768 769 770 771 772 773 0
-774 332 0
-774 341 0
-775 332 0
-775 341 0
-776 334 0
-776 342 0
-777 334 0
-777 342 0
-778 335 0
-778 336 0
-779 335 0
-779 336 0
-99 774 775 776 777 778 779 0
-780 333 0
-780 336 0
-781 333 0
-781 336 0
-100 780 781 0
-101 0
-782 332 0
-782 334 0
-783 332 0
-783 334 0
-784 339 0
-784 345 0
-785 339 0
-785 345 0
-786 341 0
-786 342 0
-787 341 0
-787 342 0
-102 782 783 784 785 786 787 0
-788 338 0
-788 345 0
-789 338 0
-789 345 0
-103 788 789 0
-104 0
-790 347 0
-790 347 0
-105 790 0
-791 346 0
-791 347 0
-792 346 0
-792 347 0
-793 348 0
-793 351 0
-794 348 0
-794 351 0
-106 791 792 793 794 0
-107 0
-795 351 0
-795 366 0
-796 351 0
-796 366 0
-108 795 796 0
-797 347 0
-797 348 0
-798 347 0
-798 348 0
-799 350 0
-799 366 0
-800 350 0
-800 366 0
-801 352 0
-801 365 0
-802 352 0
-802 365 0
-803 353 0
-803 354 0
-804 353 0
-804 354 0
-109 797 798 799 800 801 802 803 804 0
-805 351 0
-805 365 0
-806 351 0
-806 365 0
-110 805 806 0
-807 351 0
-807 353 0
-808 351 0
-808 353 0
-809 355 0
-809 363 0
-810 355 0
-810 363 0
-811 356 0
-811 360 0
-812 356 0
-812 360 0
-111 807 808 809 810 811 812 0
-813 354 0
-813 363 0
-814 354 0
-814 363 0
-815 356 0
-815 364 0
-816 356 0
-816 364 0
-817 357 0
-817 358 0
-818 357 0
-818 358 0
-112 813 814 815 816 817 818 0
-819 355 0
-819 358 0
-820 355 0
-820 358 0
-113 819 820 0
-114 0
-821 354 0
-821 356 0
-822 354 0
-822 356 0
-823 361 0
-823 367 0
-824 361 0
-824 367 0
-825 363 0
-825 364 0
-826 363 0
-826 364 0
-115 821 822 823 824 825 826 0
-827 360 0
-827 367 0
-828 360 0
-828 367 0
-116 827 828 0
-117 0
-829 369 0
-829 369 0
-118 829 0
-830 368 0
-830 369 0
-831 368 0
-831 369 0
-832 370 0
-832 373 0
-833 370 0
-833 373 0
-119 830 831 832 833 0
-120 0
-834 373 0
-834 388 0
-835 373 0
-835 388 0
-121 834 835 0
-836 369 0
-836 370 0
-837 369 0
-837 370 0
-838 372 0
-838 388 0
-839 372 0
-839 388 0
-840 374 0
-840 387 0
-841 374 0
-841 387 0
-842 375 0
-842 376 0
-843 375 0
-843 376 0
-122 836 837 838 839 840 841 842 843 0
-844 373 0
-844 387 0
-845 373 0
-845 387 0
-123 844 845 0
-846 373 0
-846 375 0
-847 373 0
-847 375 0
-848 377 0
-848 385 0
-849 377 0
-849 385 0
-850 378 0
-850 382 0
-851 378 0
-851 382 0
-124 846 847 848 849 850 851 0
-852 376 0
-852 385 0
-853 376 0
-853 385 0
-854 378 0
-854 386 0
-855 378 0
-855 386 0
-856 379 0
-856 380 0
-857 379 0
-857 380 0
-125 852 853 854 855 856 857 0
-858 377 0
-858 380 0
-859 377 0
-859 380 0
-126 858 859 0
-127 0
-860 376 0
-860 378 0
-861 376 0
-861 378 0
-862 383 0
-862 389 0
-863 383 0
-863 389 0
-864 385 0
-864 386 0
-865 385 0
-865 386 0
-128 860 861 862 863 864 865 0
-866 382 0
-866 389 0
-867 382 0
-867 389 0
-129 866 867 0
-130 0
-868 391 0
-868 391 0
-131 868 0
-869 390 0
-869 391 0
-870 390 0
-870 391 0
-871 392 0
-871 395 0
-872 392 0
-872 395 0
-132 869 870 871 872 0
-133 0
-873 395 0
-873 410 0
-874 395 0
-874 410 0
-134 873 874 0
-875 391 0
-875 392 0
-876 391 0
-876 392 0
-877 394 0
-877 410 0
-878 394 0
-878 410 0
-879 396 0
-879 409 0
-880 396 0
-880 409 0
-881 397 0
-881 398 0
-882 397 0
-882 398 0
-135 875 876 877 878 879 880 881 882 0
-883 395 0
-883 409 0
-884 395 0
-884 409 0
-136 883 884 0
-885 395 0
-885 397 0
-886 395 0
-886 397 0
-887 399 0
-887 407 0
-888 399 0
-888 407 0
-889 400 0
-889 404 0
-890 400 0
-890 404 0
-137 885 886 887 888 889 890 0
-891 398 0
-891 407 0
-892 398 0
-892 407 0
-893 400 0
-893 408 0
-894 400 0
-894 408 0
-895 401 0
-895 402 0
-896 401 0
-896 402 0
-138 891 892 893 894 895 896 0
-897 399 0
-897 402 0
-898 399 0
-898 402 0
-139 897 898 0
-140 0
-899 398 0
-899 400 0
-900 398 0
-900 400 0
-901 405 0
-901 411 0
-902 405 0
-902 411 0
-903 407 0
-903 408 0
-904 407 0
-904 408 0
-141 899 900 901 902 903 904 0
-905 404 0
-905 411 0
-906 404 0
-906 411 0
-142 905 906 0
-143 0
-907 413 0
-907 413 0
-144 907 0
-908 412 0
-908 413 0
-909 412 0
-909 413 0
-910 414 0
-910 417 0
-911 414 0
-911 417 0
-145 908 909 910 911 0
-146 0
-912 417 0
-912 432 0
-913 417 0
-913 432 0
-147 912 913 0
-914 413 0
-914 414 0
-915 413 0
-915 414 0
-916 416 0
-916 432 0
-917 416 0
-917 432 0
-918 418 0
-918 431 0
-919 418 0
-919 431 0
-920 419 0
-920 420 0
-921 419 0
-921 420 0
-148 914 915 916 917 918 919 920 921 0
-922 417 0
-922 431 0
-923 417 0
-923 431 0
-149 922 923 0
-924 417 0
-924 419 0
-925 417 0
-925 419 0
-926 421 0
-926 429 0
-927 421 0
-927 429 0
-928 422 0
-928 426 0
-929 422 0
-929 426 0
-150 924 925 926 927 928 929 0
-930 420 0
-930 429 0
-931 420 0
-931 429 0
-932 422 0
-932 430 0
-933 422 0
-933 430 0
-934 423 0
-934 424 0
-935 423 0
-935 424 0
-151 930 931 932 933 934 935 0
-936 421 0
-936 424 0
-937 421 0
-937 424 0
-152 936 937 0
-153 0
-938 420 0
-938 422 0
-939 420 0
-939 422 0
-940 427 0
-940 433 0
-941 427 0
-941 433 0
-942 429 0
-942 430 0
-943 429 0
-943 430 0
-154 938 939 940 941 942 943 0
-944 426 0
-944 433 0
-945 426 0
-945 433 0
-155 944 945 0
-156 0
-946 435 0
-946 435 0
-157 946 0
-947 434 0
-947 435 0
-948 434 0
-948 435 0
-949 436 0
-949 439 0
-950 436 0
-950 439 0
-158 947 948 949 950 0
-159 0
-951 439 0
-951 454 0
-952 439 0
-952 454 0
-160 951 952 0
-953 435 0
-953 436 0
-954 435 0
-954 436 0
-955 438 0
-955 454 0
-956 438 0
-956 454 0
-957 440 0
-957 453 0
-958 440 0
-958 453 0
-959 441 0
-959 442 0
-960 441 0
-960 442 0
-161 953 954 955 956 957 958 959 960 0
-961 439 0
-961 453 0
-962 439 0
-962 453 0
-162 961 962 0
-963 439 0
-963 441 0
-964 439 0
-964 441 0
-965 443 0
-965 451 0
-966 443 0
-966 451 0
-967 444 0
-967 448 0
-968 444 0
-968 448 0
-163 963 964 965 966 967 968 0
-969 442 0
-969 451 0
-970 442 0
-970 451 0
-971 444 0
-971 452 0
-972 444 0
-972 452 0
-973 445 0
-973 446 0
-974 445 0
-974 446 0
-164 969 970 971 972 973 974 0
-975 443 0
-975 446 0
-976 443 0
-976 446 0
-165 975 976 0
-166 0
-977 442 0
-977 444 0
-978 442 0
-978 444 0
-979 449 0
-979 455 0
-980 449 0
-980 455 0
-981 451 0
-981 452 0
-982 451 0
-982 452 0
-167 977 978 979 980 981 982 0
-983 448 0
-983 455 0
-984 448 0
-984 455 0
-168 983 984 0
-169 0
