p cnf 6482 17625
1 -2 0
1 -3 0
2 3 -1 0
-4 2 0
-4 1 0
-4 3 0
5 -2 0
5 -6 0
2 6 -5 0
-7 2 0
-7 5 0
-7 6 0
8 -2 0
8 -9 0
2 9 -8 0
-10 2 0
-10 8 0
-10 9 0
11 -2 0
11 -12 0
2 12 -11 0
-13 2 0
-13 11 0
-13 12 0
14 -2 0
14 -15 0
2 15 -14 0
-16 2 0
-16 14 0
-16 15 0
5 -1 0
5 -17 0
1 17 -5 0
-18 1 0
-18 5 0
-18 17 0
8 -1 0
8 -19 0
1 19 -8 0
-20 1 0
-20 8 0
-20 19 0
11 -1 0
11 -21 0
1 21 -11 0
-22 1 0
-22 11 0
-22 21 0
14 -1 0
14 -23 0
1 23 -14 0
-24 1 0
-24 14 0
-24 23 0
8 -5 0
8 -25 0
5 25 -8 0
-26 5 0
-26 8 0
-26 25 0
11 -5 0
11 -27 0
5 27 -11 0
-28 5 0
-28 11 0
-28 27 0
14 -5 0
14 -29 0
5 29 -14 0
-30 5 0
-30 14 0
-30 29 0
11 -8 0
11 -31 0
8 31 -11 0
-32 8 0
-32 11 0
-32 31 0
14 -8 0
14 -33 0
8 33 -14 0
-34 8 0
-34 14 0
-34 33 0
14 -11 0
14 -35 0
11 35 -14 0
-36 11 0
-36 14 0
-36 35 0
6 -3 0
6 -17 0
3 17 -6 0
-37 3 0
-37 6 0
-37 17 0
9 -3 0
9 -19 0
3 19 -9 0
-38 3 0
-38 9 0
-38 19 0
12 -3 0
12 -21 0
3 21 -12 0
-39 3 0
-39 12 0
-39 21 0
15 -3 0
15 -23 0
3 23 -15 0
-40 3 0
-40 15 0
-40 23 0
9 -6 0
9 -25 0
6 25 -9 0
-41 6 0
-41 9 0
-41 25 0
12 -6 0
12 -27 0
6 27 -12 0
-42 6 0
-42 12 0
-42 27 0
15 -6 0
15 -29 0
6 29 -15 0
-43 6 0
-43 15 0
-43 29 0
12 -9 0
12 -31 0
9 31 -12 0
-44 9 0
-44 12 0
-44 31 0
15 -9 0
15 -33 0
9 33 -15 0
-45 9 0
-45 15 0
-45 33 0
15 -12 0
15 -35 0
12 35 -15 0
-46 12 0
-46 15 0
-46 35 0
19 -17 0
19 -25 0
17 25 -19 0
-47 17 0
-47 19 0
-47 25 0
21 -17 0
21 -27 0
17 27 -21 0
-48 17 0
-48 21 0
-48 27 0
23 -17 0
23 -29 0
17 29 -23 0
-49 17 0
-49 23 0
-49 29 0
21 -19 0
21 -31 0
19 31 -21 0
-50 19 0
-50 21 0
-50 31 0
23 -19 0
23 -33 0
19 33 -23 0
-51 19 0
-51 23 0
-51 33 0
23 -21 0
23 -35 0
21 35 -23 0
-52 21 0
-52 23 0
-52 35 0
27 -25 0
27 -31 0
25 31 -27 0
-53 25 0
-53 27 0
-53 31 0
29 -25 0
29 -33 0
25 33 -29 0
-54 25 0
-54 29 0
-54 33 0
29 -27 0
29 -35 0
27 35 -29 0
-55 27 0
-55 29 0
-55 35 0
33 -31 0
33 -35 0
31 35 -33 0
-56 31 0
-56 33 0
-56 35 0
-4 -7 18 0
-4 -7 37 0
-4 -18 7 0
-4 -18 37 0
-4 -37 7 0
-4 -37 18 0
-7 -18 4 0
-7 -18 37 0
-7 -37 4 0
-7 -37 18 0
-18 -37 4 0
-18 -37 7 0
-4 -10 20 0
-4 -10 38 0
-4 -20 10 0
-4 -20 38 0
-4 -38 10 0
-4 -38 20 0
-10 -20 4 0
-10 -20 38 0
-10 -38 4 0
-10 -38 20 0
-20 -38 4 0
-20 -38 10 0
-4 -13 22 0
-4 -13 39 0
-4 -22 13 0
-4 -22 39 0
-4 -39 13 0
-4 -39 22 0
-13 -22 4 0
-13 -22 39 0
-13 -39 4 0
-13 -39 22 0
-22 -39 4 0
-22 -39 13 0
-4 -16 24 0
-4 -16 40 0
-4 -24 16 0
-4 -24 40 0
-4 -40 16 0
-4 -40 24 0
-16 -24 4 0
-16 -24 40 0
-16 -40 4 0
-16 -40 24 0
-24 -40 4 0
-24 -40 16 0
-7 -10 26 0
-7 -10 41 0
-7 -26 10 0
-7 -26 41 0
-7 -41 10 0
-7 -41 26 0
-10 -26 7 0
-10 -26 41 0
-10 -41 7 0
-10 -41 26 0
-26 -41 7 0
-26 -41 10 0
-7 -13 28 0
-7 -13 42 0
-7 -28 13 0
-7 -28 42 0
-7 -42 13 0
-7 -42 28 0
-13 -28 7 0
-13 -28 42 0
-13 -42 7 0
-13 -42 28 0
-28 -42 7 0
-28 -42 13 0
-7 -16 30 0
-7 -16 43 0
-7 -30 16 0
-7 -30 43 0
-7 -43 16 0
-7 -43 30 0
-16 -30 7 0
-16 -30 43 0
-16 -43 7 0
-16 -43 30 0
-30 -43 7 0
-30 -43 16 0
-10 -13 32 0
-10 -13 44 0
-10 -32 13 0
-10 -32 44 0
-10 -44 13 0
-10 -44 32 0
-13 -32 10 0
-13 -32 44 0
-13 -44 10 0
-13 -44 32 0
-32 -44 10 0
-32 -44 13 0
-10 -16 34 0
-10 -16 45 0
-10 -34 16 0
-10 -34 45 0
-10 -45 16 0
-10 -45 34 0
-16 -34 10 0
-16 -34 45 0
-16 -45 10 0
-16 -45 34 0
-34 -45 10 0
-34 -45 16 0
-13 -16 36 0
-13 -16 46 0
-13 -36 16 0
-13 -36 46 0
-13 -46 16 0
-13 -46 36 0
-16 -36 13 0
-16 -36 46 0
-16 -46 13 0
-16 -46 36 0
-36 -46 13 0
-36 -46 16 0
-18 -20 26 0
-18 -20 47 0
-18 -26 20 0
-18 -26 47 0
-18 -47 20 0
-18 -47 26 0
-20 -26 18 0
-20 -26 47 0
-20 -47 18 0
-20 -47 26 0
-26 -47 18 0
-26 -47 20 0
-18 -22 28 0
-18 -22 48 0
-18 -28 22 0
-18 -28 48 0
-18 -48 22 0
-18 -48 28 0
-22 -28 18 0
-22 -28 48 0
-22 -48 18 0
-22 -48 28 0
-28 -48 18 0
-28 -48 22 0
-18 -24 30 0
-18 -24 49 0
-18 -30 24 0
-18 -30 49 0
-18 -49 24 0
-18 -49 30 0
-24 -30 18 0
-24 -30 49 0
-24 -49 18 0
-24 -49 30 0
-30 -49 18 0
-30 -49 24 0
-20 -22 32 0
-20 -22 50 0
-20 -32 22 0
-20 -32 50 0
-20 -50 22 0
-20 -50 32 0
-22 -32 20 0
-22 -32 50 0
-22 -50 20 0
-22 -50 32 0
-32 -50 20 0
-32 -50 22 0
-20 -24 34 0
-20 -24 51 0
-20 -34 24 0
-20 -34 51 0
-20 -51 24 0
-20 -51 34 0
-24 -34 20 0
-24 -34 51 0
-24 -51 20 0
-24 -51 34 0
-34 -51 20 0
-34 -51 24 0
-22 -24 36 0
-22 -24 52 0
-22 -36 24 0
-22 -36 52 0
-22 -52 24 0
-22 -52 36 0
-24 -36 22 0
-24 -36 52 0
-24 -52 22 0
-24 -52 36 0
-36 -52 22 0
-36 -52 24 0
-26 -28 32 0
-26 -28 53 0
-26 -32 28 0
-26 -32 53 0
-26 -53 28 0
-26 -53 32 0
-28 -32 26 0
-28 -32 53 0
-28 -53 26 0
-28 -53 32 0
-32 -53 26 0
-32 -53 28 0
-26 -30 34 0
-26 -30 54 0
-26 -34 30 0
-26 -34 54 0
-26 -54 30 0
-26 -54 34 0
-30 -34 26 0
-30 -34 54 0
-30 -54 26 0
-30 -54 34 0
-34 -54 26 0
-34 -54 30 0
-28 -30 36 0
-28 -30 55 0
-28 -36 30 0
-28 -36 55 0
-28 -55 30 0
-28 -55 36 0
-30 -36 28 0
-30 -36 55 0
-30 -55 28 0
-30 -55 36 0
-36 -55 28 0
-36 -55 30 0
-32 -34 36 0
-32 -34 56 0
-32 -36 34 0
-32 -36 56 0
-32 -56 34 0
-32 -56 36 0
-34 -36 32 0
-34 -36 56 0
-34 -56 32 0
-34 -56 36 0
-36 -56 32 0
-36 -56 34 0
-37 -38 41 0
-37 -38 47 0
-37 -41 38 0
-37 -41 47 0
-37 -47 38 0
-37 -47 41 0
-38 -41 37 0
-38 -41 47 0
-38 -47 37 0
-38 -47 41 0
-41 -47 37 0
-41 -47 38 0
-37 -39 42 0
-37 -39 48 0
-37 -42 39 0
-37 -42 48 0
-37 -48 39 0
-37 -48 42 0
-39 -42 37 0
-39 -42 48 0
-39 -48 37 0
-39 -48 42 0
-42 -48 37 0
-42 -48 39 0
-37 -40 43 0
-37 -40 49 0
-37 -43 40 0
-37 -43 49 0
-37 -49 40 0
-37 -49 43 0
-40 -43 37 0
-40 -43 49 0
-40 -49 37 0
-40 -49 43 0
-43 -49 37 0
-43 -49 40 0
-38 -39 44 0
-38 -39 50 0
-38 -44 39 0
-38 -44 50 0
-38 -50 39 0
-38 -50 44 0
-39 -44 38 0
-39 -44 50 0
-39 -50 38 0
-39 -50 44 0
-44 -50 38 0
-44 -50 39 0
-38 -40 45 0
-38 -40 51 0
-38 -45 40 0
-38 -45 51 0
-38 -51 40 0
-38 -51 45 0
-40 -45 38 0
-40 -45 51 0
-40 -51 38 0
-40 -51 45 0
-45 -51 38 0
-45 -51 40 0
-39 -40 46 0
-39 -40 52 0
-39 -46 40 0
-39 -46 52 0
-39 -52 40 0
-39 -52 46 0
-40 -46 39 0
-40 -46 52 0
-40 -52 39 0
-40 -52 46 0
-46 -52 39 0
-46 -52 40 0
-41 -42 44 0
-41 -42 53 0
-41 -44 42 0
-41 -44 53 0
-41 -53 42 0
-41 -53 44 0
-42 -44 41 0
-42 -44 53 0
-42 -53 41 0
-42 -53 44 0
-44 -53 41 0
-44 -53 42 0
-41 -43 45 0
-41 -43 54 0
-41 -45 43 0
-41 -45 54 0
-41 -54 43 0
-41 -54 45 0
-43 -45 41 0
-43 -45 54 0
-43 -54 41 0
-43 -54 45 0
-45 -54 41 0
-45 -54 43 0
-42 -43 46 0
-42 -43 55 0
-42 -46 43 0
-42 -46 55 0
-42 -55 43 0
-42 -55 46 0
-43 -46 42 0
-43 -46 55 0
-43 -55 42 0
-43 -55 46 0
-46 -55 42 0
-46 -55 43 0
-44 -45 46 0
-44 -45 56 0
-44 -46 45 0
-44 -46 56 0
-44 -56 45 0
-44 -56 46 0
-45 -46 44 0
-45 -46 56 0
-45 -56 44 0
-45 -56 46 0
-46 -56 44 0
-46 -56 45 0
-47 -48 50 0
-47 -48 53 0
-47 -50 48 0
-47 -50 53 0
-47 -53 48 0
-47 -53 50 0
-48 -50 47 0
-48 -50 53 0
-48 -53 47 0
-48 -53 50 0
-50 -53 47 0
-50 -53 48 0
-47 -49 51 0
-47 -49 54 0
-47 -51 49 0
-47 -51 54 0
-47 -54 49 0
-47 -54 51 0
-49 -51 47 0
-49 -51 54 0
-49 -54 47 0
-49 -54 51 0
-51 -54 47 0
-51 -54 49 0
-48 -49 52 0
-48 -49 55 0
-48 -52 49 0
-48 -52 55 0
-48 -55 49 0
-48 -55 52 0
-49 -52 48 0
-49 -52 55 0
-49 -55 48 0
-49 -55 52 0
-52 -55 48 0
-52 -55 49 0
-50 -51 52 0
-50 -51 56 0
-50 -52 51 0
-50 -52 56 0
-50 -56 51 0
-50 -56 52 0
-51 -52 50 0
-51 -52 56 0
-51 -56 50 0
-51 -56 52 0
-52 -56 50 0
-52 -56 51 0
-53 -54 55 0
-53 -54 56 0
-53 -55 54 0
-53 -55 56 0
-53 -56 54 0
-53 -56 55 0
-54 -55 53 0
-54 -55 56 0
-54 -56 53 0
-54 -56 55 0
-55 -56 53 0
-55 -56 54 0
-2 -1 57 58 4 0
-57 -58 0
-57 -4 0
-58 -4 0
2 -57 0
2 -58 0
1 -57 0
1 -58 0
-2 -5 59 60 7 0
-59 -60 0
-59 -7 0
-60 -7 0
2 -59 0
2 -60 0
5 -59 0
5 -60 0
-2 -8 61 62 10 0
-61 -62 0
-61 -10 0
-62 -10 0
2 -61 0
2 -62 0
8 -61 0
8 -62 0
-2 -11 63 64 13 0
-63 -64 0
-63 -13 0
-64 -13 0
2 -63 0
2 -64 0
11 -63 0
11 -64 0
-2 -14 65 66 16 0
-65 -66 0
-65 -16 0
-66 -16 0
2 -65 0
2 -66 0
14 -65 0
14 -66 0
-1 -5 67 68 18 0
-67 -68 0
-67 -18 0
-68 -18 0
1 -67 0
1 -68 0
5 -67 0
5 -68 0
-1 -8 69 70 20 0
-69 -70 0
-69 -20 0
-70 -20 0
1 -69 0
1 -70 0
8 -69 0
8 -70 0
-1 -11 71 72 22 0
-71 -72 0
-71 -22 0
-72 -22 0
1 -71 0
1 -72 0
11 -71 0
11 -72 0
-1 -14 73 74 24 0
-73 -74 0
-73 -24 0
-74 -24 0
1 -73 0
1 -74 0
14 -73 0
14 -74 0
-5 -8 75 76 26 0
-75 -76 0
-75 -26 0
-76 -26 0
5 -75 0
5 -76 0
8 -75 0
8 -76 0
-5 -11 77 78 28 0
-77 -78 0
-77 -28 0
-78 -28 0
5 -77 0
5 -78 0
11 -77 0
11 -78 0
-5 -14 79 80 30 0
-79 -80 0
-79 -30 0
-80 -30 0
5 -79 0
5 -80 0
14 -79 0
14 -80 0
-8 -11 81 82 32 0
-81 -82 0
-81 -32 0
-82 -32 0
8 -81 0
8 -82 0
11 -81 0
11 -82 0
-8 -14 83 84 34 0
-83 -84 0
-83 -34 0
-84 -34 0
8 -83 0
8 -84 0
14 -83 0
14 -84 0
-11 -14 85 86 36 0
-85 -86 0
-85 -36 0
-86 -36 0
11 -85 0
11 -86 0
14 -85 0
14 -86 0
-57 -67 59 0
-59 -68 57 0
-58 -59 67 0
-67 -60 58 0
-60 -57 68 0
-68 -58 60 0
-57 -69 61 0
-61 -70 57 0
-58 -61 69 0
-69 -62 58 0
-62 -57 70 0
-70 -58 62 0
-57 -71 63 0
-63 -72 57 0
-58 -63 71 0
-71 -64 58 0
-64 -57 72 0
-72 -58 64 0
-57 -73 65 0
-65 -74 57 0
-58 -65 73 0
-73 -66 58 0
-66 -57 74 0
-74 -58 66 0
-59 -75 61 0
-61 -76 59 0
-60 -61 75 0
-75 -62 60 0
-62 -59 76 0
-76 -60 62 0
-59 -77 63 0
-63 -78 59 0
-60 -63 77 0
-77 -64 60 0
-64 -59 78 0
-78 -60 64 0
-59 -79 65 0
-65 -80 59 0
-60 -65 79 0
-79 -66 60 0
-66 -59 80 0
-80 -60 66 0
-61 -81 63 0
-63 -82 61 0
-62 -63 81 0
-81 -64 62 0
-64 -61 82 0
-82 -62 64 0
-61 -83 65 0
-65 -84 61 0
-62 -65 83 0
-83 -66 62 0
-66 -61 84 0
-84 -62 66 0
-63 -85 65 0
-65 -86 63 0
-64 -65 85 0
-85 -66 64 0
-66 -63 86 0
-86 -64 66 0
-67 -75 69 0
-69 -76 67 0
-68 -69 75 0
-75 -70 68 0
-70 -67 76 0
-76 -68 70 0
-67 -77 71 0
-71 -78 67 0
-68 -71 77 0
-77 -72 68 0
-72 -67 78 0
-78 -68 72 0
-67 -79 73 0
-73 -80 67 0
-68 -73 79 0
-79 -74 68 0
-74 -67 80 0
-80 -68 74 0
-69 -81 71 0
-71 -82 69 0
-70 -71 81 0
-81 -72 70 0
-72 -69 82 0
-82 -70 72 0
-69 -83 73 0
-73 -84 69 0
-70 -73 83 0
-83 -74 70 0
-74 -69 84 0
-84 -70 74 0
-71 -85 73 0
-73 -86 71 0
-72 -73 85 0
-85 -74 72 0
-74 -71 86 0
-86 -72 74 0
-75 -81 77 0
-77 -82 75 0
-76 -77 81 0
-81 -78 76 0
-78 -75 82 0
-82 -76 78 0
-75 -83 79 0
-79 -84 75 0
-76 -79 83 0
-83 -80 76 0
-80 -75 84 0
-84 -76 80 0
-77 -85 79 0
-79 -86 77 0
-78 -79 85 0
-85 -80 78 0
-80 -77 86 0
-86 -78 80 0
-81 -85 83 0
-83 -86 81 0
-82 -83 85 0
-85 -84 82 0
-84 -81 86 0
-86 -82 84 0
-4 -67 59 0
-4 -68 60 0
-4 -69 61 0
-4 -70 62 0
-4 -71 63 0
-4 -72 64 0
-4 -73 65 0
-4 -74 66 0
-7 -68 57 0
-7 -67 58 0
-7 -75 61 0
-7 -76 62 0
-7 -77 63 0
-7 -78 64 0
-7 -79 65 0
-7 -80 66 0
-10 -70 57 0
-10 -69 58 0
-10 -76 59 0
-10 -75 60 0
-10 -81 63 0
-10 -82 64 0
-10 -83 65 0
-10 -84 66 0
-13 -72 57 0
-13 -71 58 0
-13 -78 59 0
-13 -77 60 0
-13 -82 61 0
-13 -81 62 0
-13 -85 65 0
-13 -86 66 0
-16 -74 57 0
-16 -73 58 0
-16 -80 59 0
-16 -79 60 0
-16 -84 61 0
-16 -83 62 0
-16 -86 63 0
-16 -85 64 0
-18 -60 58 0
-18 -59 57 0
-18 -75 69 0
-18 -76 70 0
-18 -77 71 0
-18 -78 72 0
-18 -79 73 0
-18 -80 74 0
-20 -62 58 0
-20 -61 57 0
-20 -76 67 0
-20 -75 68 0
-20 -81 71 0
-20 -82 72 0
-20 -83 73 0
-20 -84 74 0
-22 -64 58 0
-22 -63 57 0
-22 -78 67 0
-22 -77 68 0
-22 -82 69 0
-22 -81 70 0
-22 -85 73 0
-22 -86 74 0
-24 -66 58 0
-24 -65 57 0
-24 -80 67 0
-24 -79 68 0
-24 -84 69 0
-24 -83 70 0
-24 -86 71 0
-24 -85 72 0
-26 -62 60 0
-26 -61 59 0
-26 -70 68 0
-26 -69 67 0
-26 -81 77 0
-26 -82 78 0
-26 -83 79 0
-26 -84 80 0
-28 -64 60 0
-28 -63 59 0
-28 -72 68 0
-28 -71 67 0
-28 -82 75 0
-28 -81 76 0
-28 -85 79 0
-28 -86 80 0
-30 -66 60 0
-30 -65 59 0
-30 -74 68 0
-30 -73 67 0
-30 -84 75 0
-30 -83 76 0
-30 -86 77 0
-30 -85 78 0
-32 -64 62 0
-32 -63 61 0
-32 -72 70 0
-32 -71 69 0
-32 -78 76 0
-32 -77 75 0
-32 -85 83 0
-32 -86 84 0
-34 -66 62 0
-34 -65 61 0
-34 -74 70 0
-34 -73 69 0
-34 -80 76 0
-34 -79 75 0
-34 -86 81 0
-34 -85 82 0
-36 -66 64 0
-36 -65 63 0
-36 -74 72 0
-36 -73 71 0
-36 -80 78 0
-36 -79 77 0
-36 -84 82 0
-36 -83 81 0
-2 -3 87 88 4 0
-87 -88 0
-87 -4 0
-88 -4 0
2 -87 0
2 -88 0
3 -87 0
3 -88 0
-2 -6 89 90 7 0
-89 -90 0
-89 -7 0
-90 -7 0
2 -89 0
2 -90 0
6 -89 0
6 -90 0
-2 -9 91 92 10 0
-91 -92 0
-91 -10 0
-92 -10 0
2 -91 0
2 -92 0
9 -91 0
9 -92 0
-2 -12 93 94 13 0
-93 -94 0
-93 -13 0
-94 -13 0
2 -93 0
2 -94 0
12 -93 0
12 -94 0
-2 -15 95 96 16 0
-95 -96 0
-95 -16 0
-96 -16 0
2 -95 0
2 -96 0
15 -95 0
15 -96 0
-3 -6 97 98 37 0
-97 -98 0
-97 -37 0
-98 -37 0
3 -97 0
3 -98 0
6 -97 0
6 -98 0
-3 -9 99 100 38 0
-99 -100 0
-99 -38 0
-100 -38 0
3 -99 0
3 -100 0
9 -99 0
9 -100 0
-3 -12 101 102 39 0
-101 -102 0
-101 -39 0
-102 -39 0
3 -101 0
3 -102 0
12 -101 0
12 -102 0
-3 -15 103 104 40 0
-103 -104 0
-103 -40 0
-104 -40 0
3 -103 0
3 -104 0
15 -103 0
15 -104 0
-6 -9 105 106 41 0
-105 -106 0
-105 -41 0
-106 -41 0
6 -105 0
6 -106 0
9 -105 0
9 -106 0
-6 -12 107 108 42 0
-107 -108 0
-107 -42 0
-108 -42 0
6 -107 0
6 -108 0
12 -107 0
12 -108 0
-6 -15 109 110 43 0
-109 -110 0
-109 -43 0
-110 -43 0
6 -109 0
6 -110 0
15 -109 0
15 -110 0
-9 -12 111 112 44 0
-111 -112 0
-111 -44 0
-112 -44 0
9 -111 0
9 -112 0
12 -111 0
12 -112 0
-9 -15 113 114 45 0
-113 -114 0
-113 -45 0
-114 -45 0
9 -113 0
9 -114 0
15 -113 0
15 -114 0
-12 -15 115 116 46 0
-115 -116 0
-115 -46 0
-116 -46 0
12 -115 0
12 -116 0
15 -115 0
15 -116 0
-87 -97 89 0
-89 -98 87 0
-88 -89 97 0
-97 -90 88 0
-90 -87 98 0
-98 -88 90 0
-87 -99 91 0
-91 -100 87 0
-88 -91 99 0
-99 -92 88 0
-92 -87 100 0
-100 -88 92 0
-87 -101 93 0
-93 -102 87 0
-88 -93 101 0
-101 -94 88 0
-94 -87 102 0
-102 -88 94 0
-87 -103 95 0
-95 -104 87 0
-88 -95 103 0
-103 -96 88 0
-96 -87 104 0
-104 -88 96 0
-89 -105 91 0
-91 -106 89 0
-90 -91 105 0
-105 -92 90 0
-92 -89 106 0
-106 -90 92 0
-89 -107 93 0
-93 -108 89 0
-90 -93 107 0
-107 -94 90 0
-94 -89 108 0
-108 -90 94 0
-89 -109 95 0
-95 -110 89 0
-90 -95 109 0
-109 -96 90 0
-96 -89 110 0
-110 -90 96 0
-91 -111 93 0
-93 -112 91 0
-92 -93 111 0
-111 -94 92 0
-94 -91 112 0
-112 -92 94 0
-91 -113 95 0
-95 -114 91 0
-92 -95 113 0
-113 -96 92 0
-96 -91 114 0
-114 -92 96 0
-93 -115 95 0
-95 -116 93 0
-94 -95 115 0
-115 -96 94 0
-96 -93 116 0
-116 -94 96 0
-97 -105 99 0
-99 -106 97 0
-98 -99 105 0
-105 -100 98 0
-100 -97 106 0
-106 -98 100 0
-97 -107 101 0
-101 -108 97 0
-98 -101 107 0
-107 -102 98 0
-102 -97 108 0
-108 -98 102 0
-97 -109 103 0
-103 -110 97 0
-98 -103 109 0
-109 -104 98 0
-104 -97 110 0
-110 -98 104 0
-99 -111 101 0
-101 -112 99 0
-100 -101 111 0
-111 -102 100 0
-102 -99 112 0
-112 -100 102 0
-99 -113 103 0
-103 -114 99 0
-100 -103 113 0
-113 -104 100 0
-104 -99 114 0
-114 -100 104 0
-101 -115 103 0
-103 -116 101 0
-102 -103 115 0
-115 -104 102 0
-104 -101 116 0
-116 -102 104 0
-105 -111 107 0
-107 -112 105 0
-106 -107 111 0
-111 -108 106 0
-108 -105 112 0
-112 -106 108 0
-105 -113 109 0
-109 -114 105 0
-106 -109 113 0
-113 -110 106 0
-110 -105 114 0
-114 -106 110 0
-107 -115 109 0
-109 -116 107 0
-108 -109 115 0
-115 -110 108 0
-110 -107 116 0
-116 -108 110 0
-111 -115 113 0
-113 -116 111 0
-112 -113 115 0
-115 -114 112 0
-114 -111 116 0
-116 -112 114 0
-4 -97 89 0
-4 -98 90 0
-4 -99 91 0
-4 -100 92 0
-4 -101 93 0
-4 -102 94 0
-4 -103 95 0
-4 -104 96 0
-7 -98 87 0
-7 -97 88 0
-7 -105 91 0
-7 -106 92 0
-7 -107 93 0
-7 -108 94 0
-7 -109 95 0
-7 -110 96 0
-10 -100 87 0
-10 -99 88 0
-10 -106 89 0
-10 -105 90 0
-10 -111 93 0
-10 -112 94 0
-10 -113 95 0
-10 -114 96 0
-13 -102 87 0
-13 -101 88 0
-13 -108 89 0
-13 -107 90 0
-13 -112 91 0
-13 -111 92 0
-13 -115 95 0
-13 -116 96 0
-16 -104 87 0
-16 -103 88 0
-16 -110 89 0
-16 -109 90 0
-16 -114 91 0
-16 -113 92 0
-16 -116 93 0
-16 -115 94 0
-37 -90 88 0
-37 -89 87 0
-37 -105 99 0
-37 -106 100 0
-37 -107 101 0
-37 -108 102 0
-37 -109 103 0
-37 -110 104 0
-38 -92 88 0
-38 -91 87 0
-38 -106 97 0
-38 -105 98 0
-38 -111 101 0
-38 -112 102 0
-38 -113 103 0
-38 -114 104 0
-39 -94 88 0
-39 -93 87 0
-39 -108 97 0
-39 -107 98 0
-39 -112 99 0
-39 -111 100 0
-39 -115 103 0
-39 -116 104 0
-40 -96 88 0
-40 -95 87 0
-40 -110 97 0
-40 -109 98 0
-40 -114 99 0
-40 -113 100 0
-40 -116 101 0
-40 -115 102 0
-41 -92 90 0
-41 -91 89 0
-41 -100 98 0
-41 -99 97 0
-41 -111 107 0
-41 -112 108 0
-41 -113 109 0
-41 -114 110 0
-42 -94 90 0
-42 -93 89 0
-42 -102 98 0
-42 -101 97 0
-42 -112 105 0
-42 -111 106 0
-42 -115 109 0
-42 -116 110 0
-43 -96 90 0
-43 -95 89 0
-43 -104 98 0
-43 -103 97 0
-43 -114 105 0
-43 -113 106 0
-43 -116 107 0
-43 -115 108 0
-44 -94 92 0
-44 -93 91 0
-44 -102 100 0
-44 -101 99 0
-44 -108 106 0
-44 -107 105 0
-44 -115 113 0
-44 -116 114 0
-45 -96 92 0
-45 -95 91 0
-45 -104 100 0
-45 -103 99 0
-45 -110 106 0
-45 -109 105 0
-45 -116 111 0
-45 -115 112 0
-46 -96 94 0
-46 -95 93 0
-46 -104 102 0
-46 -103 101 0
-46 -110 108 0
-46 -109 107 0
-46 -114 112 0
-46 -113 111 0
-1 -3 117 118 4 0
-117 -118 0
-117 -4 0
-118 -4 0
1 -117 0
1 -118 0
3 -117 0
3 -118 0
-1 -17 119 120 18 0
-119 -120 0
-119 -18 0
-120 -18 0
1 -119 0
1 -120 0
17 -119 0
17 -120 0
-1 -19 121 122 20 0
-121 -122 0
-121 -20 0
-122 -20 0
1 -121 0
1 -122 0
19 -121 0
19 -122 0
-1 -21 123 124 22 0
-123 -124 0
-123 -22 0
-124 -22 0
1 -123 0
1 -124 0
21 -123 0
21 -124 0
-1 -23 125 126 24 0
-125 -126 0
-125 -24 0
-126 -24 0
1 -125 0
1 -126 0
23 -125 0
23 -126 0
-3 -17 127 128 37 0
-127 -128 0
-127 -37 0
-128 -37 0
3 -127 0
3 -128 0
17 -127 0
17 -128 0
-3 -19 129 130 38 0
-129 -130 0
-129 -38 0
-130 -38 0
3 -129 0
3 -130 0
19 -129 0
19 -130 0
-3 -21 131 132 39 0
-131 -132 0
-131 -39 0
-132 -39 0
3 -131 0
3 -132 0
21 -131 0
21 -132 0
-3 -23 133 134 40 0
-133 -134 0
-133 -40 0
-134 -40 0
3 -133 0
3 -134 0
23 -133 0
23 -134 0
-17 -19 135 136 47 0
-135 -136 0
-135 -47 0
-136 -47 0
17 -135 0
17 -136 0
19 -135 0
19 -136 0
-17 -21 137 138 48 0
-137 -138 0
-137 -48 0
-138 -48 0
17 -137 0
17 -138 0
21 -137 0
21 -138 0
-17 -23 139 140 49 0
-139 -140 0
-139 -49 0
-140 -49 0
17 -139 0
17 -140 0
23 -139 0
23 -140 0
-19 -21 141 142 50 0
-141 -142 0
-141 -50 0
-142 -50 0
19 -141 0
19 -142 0
21 -141 0
21 -142 0
-19 -23 143 144 51 0
-143 -144 0
-143 -51 0
-144 -51 0
19 -143 0
19 -144 0
23 -143 0
23 -144 0
-21 -23 145 146 52 0
-145 -146 0
-145 -52 0
-146 -52 0
21 -145 0
21 -146 0
23 -145 0
23 -146 0
-117 -127 119 0
-119 -128 117 0
-118 -119 127 0
-127 -120 118 0
-120 -117 128 0
-128 -118 120 0
-117 -129 121 0
-121 -130 117 0
-118 -121 129 0
-129 -122 118 0
-122 -117 130 0
-130 -118 122 0
-117 -131 123 0
-123 -132 117 0
-118 -123 131 0
-131 -124 118 0
-124 -117 132 0
-132 -118 124 0
-117 -133 125 0
-125 -134 117 0
-118 -125 133 0
-133 -126 118 0
-126 -117 134 0
-134 -118 126 0
-119 -135 121 0
-121 -136 119 0
-120 -121 135 0
-135 -122 120 0
-122 -119 136 0
-136 -120 122 0
-119 -137 123 0
-123 -138 119 0
-120 -123 137 0
-137 -124 120 0
-124 -119 138 0
-138 -120 124 0
-119 -139 125 0
-125 -140 119 0
-120 -125 139 0
-139 -126 120 0
-126 -119 140 0
-140 -120 126 0
-121 -141 123 0
-123 -142 121 0
-122 -123 141 0
-141 -124 122 0
-124 -121 142 0
-142 -122 124 0
-121 -143 125 0
-125 -144 121 0
-122 -125 143 0
-143 -126 122 0
-126 -121 144 0
-144 -122 126 0
-123 -145 125 0
-125 -146 123 0
-124 -125 145 0
-145 -126 124 0
-126 -123 146 0
-146 -124 126 0
-127 -135 129 0
-129 -136 127 0
-128 -129 135 0
-135 -130 128 0
-130 -127 136 0
-136 -128 130 0
-127 -137 131 0
-131 -138 127 0
-128 -131 137 0
-137 -132 128 0
-132 -127 138 0
-138 -128 132 0
-127 -139 133 0
-133 -140 127 0
-128 -133 139 0
-139 -134 128 0
-134 -127 140 0
-140 -128 134 0
-129 -141 131 0
-131 -142 129 0
-130 -131 141 0
-141 -132 130 0
-132 -129 142 0
-142 -130 132 0
-129 -143 133 0
-133 -144 129 0
-130 -133 143 0
-143 -134 130 0
-134 -129 144 0
-144 -130 134 0
-131 -145 133 0
-133 -146 131 0
-132 -133 145 0
-145 -134 132 0
-134 -131 146 0
-146 -132 134 0
-135 -141 137 0
-137 -142 135 0
-136 -137 141 0
-141 -138 136 0
-138 -135 142 0
-142 -136 138 0
-135 -143 139 0
-139 -144 135 0
-136 -139 143 0
-143 -140 136 0
-140 -135 144 0
-144 -136 140 0
-137 -145 139 0
-139 -146 137 0
-138 -139 145 0
-145 -140 138 0
-140 -137 146 0
-146 -138 140 0
-141 -145 143 0
-143 -146 141 0
-142 -143 145 0
-145 -144 142 0
-144 -141 146 0
-146 -142 144 0
-4 -127 119 0
-4 -128 120 0
-4 -129 121 0
-4 -130 122 0
-4 -131 123 0
-4 -132 124 0
-4 -133 125 0
-4 -134 126 0
-18 -128 117 0
-18 -127 118 0
-18 -135 121 0
-18 -136 122 0
-18 -137 123 0
-18 -138 124 0
-18 -139 125 0
-18 -140 126 0
-20 -130 117 0
-20 -129 118 0
-20 -136 119 0
-20 -135 120 0
-20 -141 123 0
-20 -142 124 0
-20 -143 125 0
-20 -144 126 0
-22 -132 117 0
-22 -131 118 0
-22 -138 119 0
-22 -137 120 0
-22 -142 121 0
-22 -141 122 0
-22 -145 125 0
-22 -146 126 0
-24 -134 117 0
-24 -133 118 0
-24 -140 119 0
-24 -139 120 0
-24 -144 121 0
-24 -143 122 0
-24 -146 123 0
-24 -145 124 0
-37 -120 118 0
-37 -119 117 0
-37 -135 129 0
-37 -136 130 0
-37 -137 131 0
-37 -138 132 0
-37 -139 133 0
-37 -140 134 0
-38 -122 118 0
-38 -121 117 0
-38 -136 127 0
-38 -135 128 0
-38 -141 131 0
-38 -142 132 0
-38 -143 133 0
-38 -144 134 0
-39 -124 118 0
-39 -123 117 0
-39 -138 127 0
-39 -137 128 0
-39 -142 129 0
-39 -141 130 0
-39 -145 133 0
-39 -146 134 0
-40 -126 118 0
-40 -125 117 0
-40 -140 127 0
-40 -139 128 0
-40 -144 129 0
-40 -143 130 0
-40 -146 131 0
-40 -145 132 0
-47 -122 120 0
-47 -121 119 0
-47 -130 128 0
-47 -129 127 0
-47 -141 137 0
-47 -142 138 0
-47 -143 139 0
-47 -144 140 0
-48 -124 120 0
-48 -123 119 0
-48 -132 128 0
-48 -131 127 0
-48 -142 135 0
-48 -141 136 0
-48 -145 139 0
-48 -146 140 0
-49 -126 120 0
-49 -125 119 0
-49 -134 128 0
-49 -133 127 0
-49 -144 135 0
-49 -143 136 0
-49 -146 137 0
-49 -145 138 0
-50 -124 122 0
-50 -123 121 0
-50 -132 130 0
-50 -131 129 0
-50 -138 136 0
-50 -137 135 0
-50 -145 143 0
-50 -146 144 0
-51 -126 122 0
-51 -125 121 0
-51 -134 130 0
-51 -133 129 0
-51 -140 136 0
-51 -139 135 0
-51 -146 141 0
-51 -145 142 0
-52 -126 124 0
-52 -125 123 0
-52 -134 132 0
-52 -133 131 0
-52 -140 138 0
-52 -139 137 0
-52 -144 142 0
-52 -143 141 0
-5 -6 147 148 7 0
-147 -148 0
-147 -7 0
-148 -7 0
5 -147 0
5 -148 0
6 -147 0
6 -148 0
-5 -17 149 150 18 0
-149 -150 0
-149 -18 0
-150 -18 0
5 -149 0
5 -150 0
17 -149 0
17 -150 0
-5 -25 151 152 26 0
-151 -152 0
-151 -26 0
-152 -26 0
5 -151 0
5 -152 0
25 -151 0
25 -152 0
-5 -27 153 154 28 0
-153 -154 0
-153 -28 0
-154 -28 0
5 -153 0
5 -154 0
27 -153 0
27 -154 0
-5 -29 155 156 30 0
-155 -156 0
-155 -30 0
-156 -30 0
5 -155 0
5 -156 0
29 -155 0
29 -156 0
-6 -17 157 158 37 0
-157 -158 0
-157 -37 0
-158 -37 0
6 -157 0
6 -158 0
17 -157 0
17 -158 0
-6 -25 159 160 41 0
-159 -160 0
-159 -41 0
-160 -41 0
6 -159 0
6 -160 0
25 -159 0
25 -160 0
-6 -27 161 162 42 0
-161 -162 0
-161 -42 0
-162 -42 0
6 -161 0
6 -162 0
27 -161 0
27 -162 0
-6 -29 163 164 43 0
-163 -164 0
-163 -43 0
-164 -43 0
6 -163 0
6 -164 0
29 -163 0
29 -164 0
-17 -25 165 166 47 0
-165 -166 0
-165 -47 0
-166 -47 0
17 -165 0
17 -166 0
25 -165 0
25 -166 0
-17 -27 167 168 48 0
-167 -168 0
-167 -48 0
-168 -48 0
17 -167 0
17 -168 0
27 -167 0
27 -168 0
-17 -29 169 170 49 0
-169 -170 0
-169 -49 0
-170 -49 0
17 -169 0
17 -170 0
29 -169 0
29 -170 0
-25 -27 171 172 53 0
-171 -172 0
-171 -53 0
-172 -53 0
25 -171 0
25 -172 0
27 -171 0
27 -172 0
-25 -29 173 174 54 0
-173 -174 0
-173 -54 0
-174 -54 0
25 -173 0
25 -174 0
29 -173 0
29 -174 0
-27 -29 175 176 55 0
-175 -176 0
-175 -55 0
-176 -55 0
27 -175 0
27 -176 0
29 -175 0
29 -176 0
-147 -157 149 0
-149 -158 147 0
-148 -149 157 0
-157 -150 148 0
-150 -147 158 0
-158 -148 150 0
-147 -159 151 0
-151 -160 147 0
-148 -151 159 0
-159 -152 148 0
-152 -147 160 0
-160 -148 152 0
-147 -161 153 0
-153 -162 147 0
-148 -153 161 0
-161 -154 148 0
-154 -147 162 0
-162 -148 154 0
-147 -163 155 0
-155 -164 147 0
-148 -155 163 0
-163 -156 148 0
-156 -147 164 0
-164 -148 156 0
-149 -165 151 0
-151 -166 149 0
-150 -151 165 0
-165 -152 150 0
-152 -149 166 0
-166 -150 152 0
-149 -167 153 0
-153 -168 149 0
-150 -153 167 0
-167 -154 150 0
-154 -149 168 0
-168 -150 154 0
-149 -169 155 0
-155 -170 149 0
-150 -155 169 0
-169 -156 150 0
-156 -149 170 0
-170 -150 156 0
-151 -171 153 0
-153 -172 151 0
-152 -153 171 0
-171 -154 152 0
-154 -151 172 0
-172 -152 154 0
-151 -173 155 0
-155 -174 151 0
-152 -155 173 0
-173 -156 152 0
-156 -151 174 0
-174 -152 156 0
-153 -175 155 0
-155 -176 153 0
-154 -155 175 0
-175 -156 154 0
-156 -153 176 0
-176 -154 156 0
-157 -165 159 0
-159 -166 157 0
-158 -159 165 0
-165 -160 158 0
-160 -157 166 0
-166 -158 160 0
-157 -167 161 0
-161 -168 157 0
-158 -161 167 0
-167 -162 158 0
-162 -157 168 0
-168 -158 162 0
-157 -169 163 0
-163 -170 157 0
-158 -163 169 0
-169 -164 158 0
-164 -157 170 0
-170 -158 164 0
-159 -171 161 0
-161 -172 159 0
-160 -161 171 0
-171 -162 160 0
-162 -159 172 0
-172 -160 162 0
-159 -173 163 0
-163 -174 159 0
-160 -163 173 0
-173 -164 160 0
-164 -159 174 0
-174 -160 164 0
-161 -175 163 0
-163 -176 161 0
-162 -163 175 0
-175 -164 162 0
-164 -161 176 0
-176 -162 164 0
-165 -171 167 0
-167 -172 165 0
-166 -167 171 0
-171 -168 166 0
-168 -165 172 0
-172 -166 168 0
-165 -173 169 0
-169 -174 165 0
-166 -169 173 0
-173 -170 166 0
-170 -165 174 0
-174 -166 170 0
-167 -175 169 0
-169 -176 167 0
-168 -169 175 0
-175 -170 168 0
-170 -167 176 0
-176 -168 170 0
-171 -175 173 0
-173 -176 171 0
-172 -173 175 0
-175 -174 172 0
-174 -171 176 0
-176 -172 174 0
-7 -157 149 0
-7 -158 150 0
-7 -159 151 0
-7 -160 152 0
-7 -161 153 0
-7 -162 154 0
-7 -163 155 0
-7 -164 156 0
-18 -158 147 0
-18 -157 148 0
-18 -165 151 0
-18 -166 152 0
-18 -167 153 0
-18 -168 154 0
-18 -169 155 0
-18 -170 156 0
-26 -160 147 0
-26 -159 148 0
-26 -166 149 0
-26 -165 150 0
-26 -171 153 0
-26 -172 154 0
-26 -173 155 0
-26 -174 156 0
-28 -162 147 0
-28 -161 148 0
-28 -168 149 0
-28 -167 150 0
-28 -172 151 0
-28 -171 152 0
-28 -175 155 0
-28 -176 156 0
-30 -164 147 0
-30 -163 148 0
-30 -170 149 0
-30 -169 150 0
-30 -174 151 0
-30 -173 152 0
-30 -176 153 0
-30 -175 154 0
-37 -150 148 0
-37 -149 147 0
-37 -165 159 0
-37 -166 160 0
-37 -167 161 0
-37 -168 162 0
-37 -169 163 0
-37 -170 164 0
-41 -152 148 0
-41 -151 147 0
-41 -166 157 0
-41 -165 158 0
-41 -171 161 0
-41 -172 162 0
-41 -173 163 0
-41 -174 164 0
-42 -154 148 0
-42 -153 147 0
-42 -168 157 0
-42 -167 158 0
-42 -172 159 0
-42 -171 160 0
-42 -175 163 0
-42 -176 164 0
-43 -156 148 0
-43 -155 147 0
-43 -170 157 0
-43 -169 158 0
-43 -174 159 0
-43 -173 160 0
-43 -176 161 0
-43 -175 162 0
-47 -152 150 0
-47 -151 149 0
-47 -160 158 0
-47 -159 157 0
-47 -171 167 0
-47 -172 168 0
-47 -173 169 0
-47 -174 170 0
-48 -154 150 0
-48 -153 149 0
-48 -162 158 0
-48 -161 157 0
-48 -172 165 0
-48 -171 166 0
-48 -175 169 0
-48 -176 170 0
-49 -156 150 0
-49 -155 149 0
-49 -164 158 0
-49 -163 157 0
-49 -174 165 0
-49 -173 166 0
-49 -176 167 0
-49 -175 168 0
-53 -154 152 0
-53 -153 151 0
-53 -162 160 0
-53 -161 159 0
-53 -168 166 0
-53 -167 165 0
-53 -175 173 0
-53 -176 174 0
-54 -156 152 0
-54 -155 151 0
-54 -164 160 0
-54 -163 159 0
-54 -170 166 0
-54 -169 165 0
-54 -176 171 0
-54 -175 172 0
-55 -156 154 0
-55 -155 153 0
-55 -164 162 0
-55 -163 161 0
-55 -170 168 0
-55 -169 167 0
-55 -174 172 0
-55 -173 171 0
-8 -9 177 178 10 0
-177 -178 0
-177 -10 0
-178 -10 0
8 -177 0
8 -178 0
9 -177 0
9 -178 0
-8 -19 179 180 20 0
-179 -180 0
-179 -20 0
-180 -20 0
8 -179 0
8 -180 0
19 -179 0
19 -180 0
-8 -25 181 182 26 0
-181 -182 0
-181 -26 0
-182 -26 0
8 -181 0
8 -182 0
25 -181 0
25 -182 0
-8 -31 183 184 32 0
-183 -184 0
-183 -32 0
-184 -32 0
8 -183 0
8 -184 0
31 -183 0
31 -184 0
-8 -33 185 186 34 0
-185 -186 0
-185 -34 0
-186 -34 0
8 -185 0
8 -186 0
33 -185 0
33 -186 0
-9 -19 187 188 38 0
-187 -188 0
-187 -38 0
-188 -38 0
9 -187 0
9 -188 0
19 -187 0
19 -188 0
-9 -25 189 190 41 0
-189 -190 0
-189 -41 0
-190 -41 0
9 -189 0
9 -190 0
25 -189 0
25 -190 0
-9 -31 191 192 44 0
-191 -192 0
-191 -44 0
-192 -44 0
9 -191 0
9 -192 0
31 -191 0
31 -192 0
-9 -33 193 194 45 0
-193 -194 0
-193 -45 0
-194 -45 0
9 -193 0
9 -194 0
33 -193 0
33 -194 0
-19 -25 195 196 47 0
-195 -196 0
-195 -47 0
-196 -47 0
19 -195 0
19 -196 0
25 -195 0
25 -196 0
-19 -31 197 198 50 0
-197 -198 0
-197 -50 0
-198 -50 0
19 -197 0
19 -198 0
31 -197 0
31 -198 0
-19 -33 199 200 51 0
-199 -200 0
-199 -51 0
-200 -51 0
19 -199 0
19 -200 0
33 -199 0
33 -200 0
-25 -31 201 202 53 0
-201 -202 0
-201 -53 0
-202 -53 0
25 -201 0
25 -202 0
31 -201 0
31 -202 0
-25 -33 203 204 54 0
-203 -204 0
-203 -54 0
-204 -54 0
25 -203 0
25 -204 0
33 -203 0
33 -204 0
-31 -33 205 206 56 0
-205 -206 0
-205 -56 0
-206 -56 0
31 -205 0
31 -206 0
33 -205 0
33 -206 0
-177 -187 179 0
-179 -188 177 0
-178 -179 187 0
-187 -180 178 0
-180 -177 188 0
-188 -178 180 0
-177 -189 181 0
-181 -190 177 0
-178 -181 189 0
-189 -182 178 0
-182 -177 190 0
-190 -178 182 0
-177 -191 183 0
-183 -192 177 0
-178 -183 191 0
-191 -184 178 0
-184 -177 192 0
-192 -178 184 0
-177 -193 185 0
-185 -194 177 0
-178 -185 193 0
-193 -186 178 0
-186 -177 194 0
-194 -178 186 0
-179 -195 181 0
-181 -196 179 0
-180 -181 195 0
-195 -182 180 0
-182 -179 196 0
-196 -180 182 0
-179 -197 183 0
-183 -198 179 0
-180 -183 197 0
-197 -184 180 0
-184 -179 198 0
-198 -180 184 0
-179 -199 185 0
-185 -200 179 0
-180 -185 199 0
-199 -186 180 0
-186 -179 200 0
-200 -180 186 0
-181 -201 183 0
-183 -202 181 0
-182 -183 201 0
-201 -184 182 0
-184 -181 202 0
-202 -182 184 0
-181 -203 185 0
-185 -204 181 0
-182 -185 203 0
-203 -186 182 0
-186 -181 204 0
-204 -182 186 0
-183 -205 185 0
-185 -206 183 0
-184 -185 205 0
-205 -186 184 0
-186 -183 206 0
-206 -184 186 0
-187 -195 189 0
-189 -196 187 0
-188 -189 195 0
-195 -190 188 0
-190 -187 196 0
-196 -188 190 0
-187 -197 191 0
-191 -198 187 0
-188 -191 197 0
-197 -192 188 0
-192 -187 198 0
-198 -188 192 0
-187 -199 193 0
-193 -200 187 0
-188 -193 199 0
-199 -194 188 0
-194 -187 200 0
-200 -188 194 0
-189 -201 191 0
-191 -202 189 0
-190 -191 201 0
-201 -192 190 0
-192 -189 202 0
-202 -190 192 0
-189 -203 193 0
-193 -204 189 0
-190 -193 203 0
-203 -194 190 0
-194 -189 204 0
-204 -190 194 0
-191 -205 193 0
-193 -206 191 0
-192 -193 205 0
-205 -194 192 0
-194 -191 206 0
-206 -192 194 0
-195 -201 197 0
-197 -202 195 0
-196 -197 201 0
-201 -198 196 0
-198 -195 202 0
-202 -196 198 0
-195 -203 199 0
-199 -204 195 0
-196 -199 203 0
-203 -200 196 0
-200 -195 204 0
-204 -196 200 0
-197 -205 199 0
-199 -206 197 0
-198 -199 205 0
-205 -200 198 0
-200 -197 206 0
-206 -198 200 0
-201 -205 203 0
-203 -206 201 0
-202 -203 205 0
-205 -204 202 0
-204 -201 206 0
-206 -202 204 0
-10 -187 179 0
-10 -188 180 0
-10 -189 181 0
-10 -190 182 0
-10 -191 183 0
-10 -192 184 0
-10 -193 185 0
-10 -194 186 0
-20 -188 177 0
-20 -187 178 0
-20 -195 181 0
-20 -196 182 0
-20 -197 183 0
-20 -198 184 0
-20 -199 185 0
-20 -200 186 0
-26 -190 177 0
-26 -189 178 0
-26 -196 179 0
-26 -195 180 0
-26 -201 183 0
-26 -202 184 0
-26 -203 185 0
-26 -204 186 0
-32 -192 177 0
-32 -191 178 0
-32 -198 179 0
-32 -197 180 0
-32 -202 181 0
-32 -201 182 0
-32 -205 185 0
-32 -206 186 0
-34 -194 177 0
-34 -193 178 0
-34 -200 179 0
-34 -199 180 0
-34 -204 181 0
-34 -203 182 0
-34 -206 183 0
-34 -205 184 0
-38 -180 178 0
-38 -179 177 0
-38 -195 189 0
-38 -196 190 0
-38 -197 191 0
-38 -198 192 0
-38 -199 193 0
-38 -200 194 0
-41 -182 178 0
-41 -181 177 0
-41 -196 187 0
-41 -195 188 0
-41 -201 191 0
-41 -202 192 0
-41 -203 193 0
-41 -204 194 0
-44 -184 178 0
-44 -183 177 0
-44 -198 187 0
-44 -197 188 0
-44 -202 189 0
-44 -201 190 0
-44 -205 193 0
-44 -206 194 0
-45 -186 178 0
-45 -185 177 0
-45 -200 187 0
-45 -199 188 0
-45 -204 189 0
-45 -203 190 0
-45 -206 191 0
-45 -205 192 0
-47 -182 180 0
-47 -181 179 0
-47 -190 188 0
-47 -189 187 0
-47 -201 197 0
-47 -202 198 0
-47 -203 199 0
-47 -204 200 0
-50 -184 180 0
-50 -183 179 0
-50 -192 188 0
-50 -191 187 0
-50 -202 195 0
-50 -201 196 0
-50 -205 199 0
-50 -206 200 0
-51 -186 180 0
-51 -185 179 0
-51 -194 188 0
-51 -193 187 0
-51 -204 195 0
-51 -203 196 0
-51 -206 197 0
-51 -205 198 0
-53 -184 182 0
-53 -183 181 0
-53 -192 190 0
-53 -191 189 0
-53 -198 196 0
-53 -197 195 0
-53 -205 203 0
-53 -206 204 0
-54 -186 182 0
-54 -185 181 0
-54 -194 190 0
-54 -193 189 0
-54 -200 196 0
-54 -199 195 0
-54 -206 201 0
-54 -205 202 0
-56 -186 184 0
-56 -185 183 0
-56 -194 192 0
-56 -193 191 0
-56 -200 198 0
-56 -199 197 0
-56 -204 202 0
-56 -203 201 0
-11 -12 207 208 13 0
-207 -208 0
-207 -13 0
-208 -13 0
11 -207 0
11 -208 0
12 -207 0
12 -208 0
-11 -21 209 210 22 0
-209 -210 0
-209 -22 0
-210 -22 0
11 -209 0
11 -210 0
21 -209 0
21 -210 0
-11 -27 211 212 28 0
-211 -212 0
-211 -28 0
-212 -28 0
11 -211 0
11 -212 0
27 -211 0
27 -212 0
-11 -31 213 214 32 0
-213 -214 0
-213 -32 0
-214 -32 0
11 -213 0
11 -214 0
31 -213 0
31 -214 0
-11 -35 215 216 36 0
-215 -216 0
-215 -36 0
-216 -36 0
11 -215 0
11 -216 0
35 -215 0
35 -216 0
-12 -21 217 218 39 0
-217 -218 0
-217 -39 0
-218 -39 0
12 -217 0
12 -218 0
21 -217 0
21 -218 0
-12 -27 219 220 42 0
-219 -220 0
-219 -42 0
-220 -42 0
12 -219 0
12 -220 0
27 -219 0
27 -220 0
-12 -31 221 222 44 0
-221 -222 0
-221 -44 0
-222 -44 0
12 -221 0
12 -222 0
31 -221 0
31 -222 0
-12 -35 223 224 46 0
-223 -224 0
-223 -46 0
-224 -46 0
12 -223 0
12 -224 0
35 -223 0
35 -224 0
-21 -27 225 226 48 0
-225 -226 0
-225 -48 0
-226 -48 0
21 -225 0
21 -226 0
27 -225 0
27 -226 0
-21 -31 227 228 50 0
-227 -228 0
-227 -50 0
-228 -50 0
21 -227 0
21 -228 0
31 -227 0
31 -228 0
-21 -35 229 230 52 0
-229 -230 0
-229 -52 0
-230 -52 0
21 -229 0
21 -230 0
35 -229 0
35 -230 0
-27 -31 231 232 53 0
-231 -232 0
-231 -53 0
-232 -53 0
27 -231 0
27 -232 0
31 -231 0
31 -232 0
-27 -35 233 234 55 0
-233 -234 0
-233 -55 0
-234 -55 0
27 -233 0
27 -234 0
35 -233 0
35 -234 0
-31 -35 235 236 56 0
-235 -236 0
-235 -56 0
-236 -56 0
31 -235 0
31 -236 0
35 -235 0
35 -236 0
-207 -217 209 0
-209 -218 207 0
-208 -209 217 0
-217 -210 208 0
-210 -207 218 0
-218 -208 210 0
-207 -219 211 0
-211 -220 207 0
-208 -211 219 0
-219 -212 208 0
-212 -207 220 0
-220 -208 212 0
-207 -221 213 0
-213 -222 207 0
-208 -213 221 0
-221 -214 208 0
-214 -207 222 0
-222 -208 214 0
-207 -223 215 0
-215 -224 207 0
-208 -215 223 0
-223 -216 208 0
-216 -207 224 0
-224 -208 216 0
-209 -225 211 0
-211 -226 209 0
-210 -211 225 0
-225 -212 210 0
-212 -209 226 0
-226 -210 212 0
-209 -227 213 0
-213 -228 209 0
-210 -213 227 0
-227 -214 210 0
-214 -209 228 0
-228 -210 214 0
-209 -229 215 0
-215 -230 209 0
-210 -215 229 0
-229 -216 210 0
-216 -209 230 0
-230 -210 216 0
-211 -231 213 0
-213 -232 211 0
-212 -213 231 0
-231 -214 212 0
-214 -211 232 0
-232 -212 214 0
-211 -233 215 0
-215 -234 211 0
-212 -215 233 0
-233 -216 212 0
-216 -211 234 0
-234 -212 216 0
-213 -235 215 0
-215 -236 213 0
-214 -215 235 0
-235 -216 214 0
-216 -213 236 0
-236 -214 216 0
-217 -225 219 0
-219 -226 217 0
-218 -219 225 0
-225 -220 218 0
-220 -217 226 0
-226 -218 220 0
-217 -227 221 0
-221 -228 217 0
-218 -221 227 0
-227 -222 218 0
-222 -217 228 0
-228 -218 222 0
-217 -229 223 0
-223 -230 217 0
-218 -223 229 0
-229 -224 218 0
-224 -217 230 0
-230 -218 224 0
-219 -231 221 0
-221 -232 219 0
-220 -221 231 0
-231 -222 220 0
-222 -219 232 0
-232 -220 222 0
-219 -233 223 0
-223 -234 219 0
-220 -223 233 0
-233 -224 220 0
-224 -219 234 0
-234 -220 224 0
-221 -235 223 0
-223 -236 221 0
-222 -223 235 0
-235 -224 222 0
-224 -221 236 0
-236 -222 224 0
-225 -231 227 0
-227 -232 225 0
-226 -227 231 0
-231 -228 226 0
-228 -225 232 0
-232 -226 228 0
-225 -233 229 0
-229 -234 225 0
-226 -229 233 0
-233 -230 226 0
-230 -225 234 0
-234 -226 230 0
-227 -235 229 0
-229 -236 227 0
-228 -229 235 0
-235 -230 228 0
-230 -227 236 0
-236 -228 230 0
-231 -235 233 0
-233 -236 231 0
-232 -233 235 0
-235 -234 232 0
-234 -231 236 0
-236 -232 234 0
-13 -217 209 0
-13 -218 210 0
-13 -219 211 0
-13 -220 212 0
-13 -221 213 0
-13 -222 214 0
-13 -223 215 0
-13 -224 216 0
-22 -218 207 0
-22 -217 208 0
-22 -225 211 0
-22 -226 212 0
-22 -227 213 0
-22 -228 214 0
-22 -229 215 0
-22 -230 216 0
-28 -220 207 0
-28 -219 208 0
-28 -226 209 0
-28 -225 210 0
-28 -231 213 0
-28 -232 214 0
-28 -233 215 0
-28 -234 216 0
-32 -222 207 0
-32 -221 208 0
-32 -228 209 0
-32 -227 210 0
-32 -232 211 0
-32 -231 212 0
-32 -235 215 0
-32 -236 216 0
-36 -224 207 0
-36 -223 208 0
-36 -230 209 0
-36 -229 210 0
-36 -234 211 0
-36 -233 212 0
-36 -236 213 0
-36 -235 214 0
-39 -210 208 0
-39 -209 207 0
-39 -225 219 0
-39 -226 220 0
-39 -227 221 0
-39 -228 222 0
-39 -229 223 0
-39 -230 224 0
-42 -212 208 0
-42 -211 207 0
-42 -226 217 0
-42 -225 218 0
-42 -231 221 0
-42 -232 222 0
-42 -233 223 0
-42 -234 224 0
-44 -214 208 0
-44 -213 207 0
-44 -228 217 0
-44 -227 218 0
-44 -232 219 0
-44 -231 220 0
-44 -235 223 0
-44 -236 224 0
-46 -216 208 0
-46 -215 207 0
-46 -230 217 0
-46 -229 218 0
-46 -234 219 0
-46 -233 220 0
-46 -236 221 0
-46 -235 222 0
-48 -212 210 0
-48 -211 209 0
-48 -220 218 0
-48 -219 217 0
-48 -231 227 0
-48 -232 228 0
-48 -233 229 0
-48 -234 230 0
-50 -214 210 0
-50 -213 209 0
-50 -222 218 0
-50 -221 217 0
-50 -232 225 0
-50 -231 226 0
-50 -235 229 0
-50 -236 230 0
-52 -216 210 0
-52 -215 209 0
-52 -224 218 0
-52 -223 217 0
-52 -234 225 0
-52 -233 226 0
-52 -236 227 0
-52 -235 228 0
-53 -214 212 0
-53 -213 211 0
-53 -222 220 0
-53 -221 219 0
-53 -228 226 0
-53 -227 225 0
-53 -235 233 0
-53 -236 234 0
-55 -216 212 0
-55 -215 211 0
-55 -224 220 0
-55 -223 219 0
-55 -230 226 0
-55 -229 225 0
-55 -236 231 0
-55 -235 232 0
-56 -216 214 0
-56 -215 213 0
-56 -224 222 0
-56 -223 221 0
-56 -230 228 0
-56 -229 227 0
-56 -234 232 0
-56 -233 231 0
-14 -15 237 238 16 0
-237 -238 0
-237 -16 0
-238 -16 0
14 -237 0
14 -238 0
15 -237 0
15 -238 0
-14 -23 239 240 24 0
-239 -240 0
-239 -24 0
-240 -24 0
14 -239 0
14 -240 0
23 -239 0
23 -240 0
-14 -29 241 242 30 0
-241 -242 0
-241 -30 0
-242 -30 0
14 -241 0
14 -242 0
29 -241 0
29 -242 0
-14 -33 243 244 34 0
-243 -244 0
-243 -34 0
-244 -34 0
14 -243 0
14 -244 0
33 -243 0
33 -244 0
-14 -35 245 246 36 0
-245 -246 0
-245 -36 0
-246 -36 0
14 -245 0
14 -246 0
35 -245 0
35 -246 0
-15 -23 247 248 40 0
-247 -248 0
-247 -40 0
-248 -40 0
15 -247 0
15 -248 0
23 -247 0
23 -248 0
-15 -29 249 250 43 0
-249 -250 0
-249 -43 0
-250 -43 0
15 -249 0
15 -250 0
29 -249 0
29 -250 0
-15 -33 251 252 45 0
-251 -252 0
-251 -45 0
-252 -45 0
15 -251 0
15 -252 0
33 -251 0
33 -252 0
-15 -35 253 254 46 0
-253 -254 0
-253 -46 0
-254 -46 0
15 -253 0
15 -254 0
35 -253 0
35 -254 0
-23 -29 255 256 49 0
-255 -256 0
-255 -49 0
-256 -49 0
23 -255 0
23 -256 0
29 -255 0
29 -256 0
-23 -33 257 258 51 0
-257 -258 0
-257 -51 0
-258 -51 0
23 -257 0
23 -258 0
33 -257 0
33 -258 0
-23 -35 259 260 52 0
-259 -260 0
-259 -52 0
-260 -52 0
23 -259 0
23 -260 0
35 -259 0
35 -260 0
-29 -33 261 262 54 0
-261 -262 0
-261 -54 0
-262 -54 0
29 -261 0
29 -262 0
33 -261 0
33 -262 0
-29 -35 263 264 55 0
-263 -264 0
-263 -55 0
-264 -55 0
29 -263 0
29 -264 0
35 -263 0
35 -264 0
-33 -35 265 266 56 0
-265 -266 0
-265 -56 0
-266 -56 0
33 -265 0
33 -266 0
35 -265 0
35 -266 0
-237 -247 239 0
-239 -248 237 0
-238 -239 247 0
-247 -240 238 0
-240 -237 248 0
-248 -238 240 0
-237 -249 241 0
-241 -250 237 0
-238 -241 249 0
-249 -242 238 0
-242 -237 250 0
-250 -238 242 0
-237 -251 243 0
-243 -252 237 0
-238 -243 251 0
-251 -244 238 0
-244 -237 252 0
-252 -238 244 0
-237 -253 245 0
-245 -254 237 0
-238 -245 253 0
-253 -246 238 0
-246 -237 254 0
-254 -238 246 0
-239 -255 241 0
-241 -256 239 0
-240 -241 255 0
-255 -242 240 0
-242 -239 256 0
-256 -240 242 0
-239 -257 243 0
-243 -258 239 0
-240 -243 257 0
-257 -244 240 0
-244 -239 258 0
-258 -240 244 0
-239 -259 245 0
-245 -260 239 0
-240 -245 259 0
-259 -246 240 0
-246 -239 260 0
-260 -240 246 0
-241 -261 243 0
-243 -262 241 0
-242 -243 261 0
-261 -244 242 0
-244 -241 262 0
-262 -242 244 0
-241 -263 245 0
-245 -264 241 0
-242 -245 263 0
-263 -246 242 0
-246 -241 264 0
-264 -242 246 0
-243 -265 245 0
-245 -266 243 0
-244 -245 265 0
-265 -246 244 0
-246 -243 266 0
-266 -244 246 0
-247 -255 249 0
-249 -256 247 0
-248 -249 255 0
-255 -250 248 0
-250 -247 256 0
-256 -248 250 0
-247 -257 251 0
-251 -258 247 0
-248 -251 257 0
-257 -252 248 0
-252 -247 258 0
-258 -248 252 0
-247 -259 253 0
-253 -260 247 0
-248 -253 259 0
-259 -254 248 0
-254 -247 260 0
-260 -248 254 0
-249 -261 251 0
-251 -262 249 0
-250 -251 261 0
-261 -252 250 0
-252 -249 262 0
-262 -250 252 0
-249 -263 253 0
-253 -264 249 0
-250 -253 263 0
-263 -254 250 0
-254 -249 264 0
-264 -250 254 0
-251 -265 253 0
-253 -266 251 0
-252 -253 265 0
-265 -254 252 0
-254 -251 266 0
-266 -252 254 0
-255 -261 257 0
-257 -262 255 0
-256 -257 261 0
-261 -258 256 0
-258 -255 262 0
-262 -256 258 0
-255 -263 259 0
-259 -264 255 0
-256 -259 263 0
-263 -260 256 0
-260 -255 264 0
-264 -256 260 0
-257 -265 259 0
-259 -266 257 0
-258 -259 265 0
-265 -260 258 0
-260 -257 266 0
-266 -258 260 0
-261 -265 263 0
-263 -266 261 0
-262 -263 265 0
-265 -264 262 0
-264 -261 266 0
-266 -262 264 0
-16 -247 239 0
-16 -248 240 0
-16 -249 241 0
-16 -250 242 0
-16 -251 243 0
-16 -252 244 0
-16 -253 245 0
-16 -254 246 0
-24 -248 237 0
-24 -247 238 0
-24 -255 241 0
-24 -256 242 0
-24 -257 243 0
-24 -258 244 0
-24 -259 245 0
-24 -260 246 0
-30 -250 237 0
-30 -249 238 0
-30 -256 239 0
-30 -255 240 0
-30 -261 243 0
-30 -262 244 0
-30 -263 245 0
-30 -264 246 0
-34 -252 237 0
-34 -251 238 0
-34 -258 239 0
-34 -257 240 0
-34 -262 241 0
-34 -261 242 0
-34 -265 245 0
-34 -266 246 0
-36 -254 237 0
-36 -253 238 0
-36 -260 239 0
-36 -259 240 0
-36 -264 241 0
-36 -263 242 0
-36 -266 243 0
-36 -265 244 0
-40 -240 238 0
-40 -239 237 0
-40 -255 249 0
-40 -256 250 0
-40 -257 251 0
-40 -258 252 0
-40 -259 253 0
-40 -260 254 0
-43 -242 238 0
-43 -241 237 0
-43 -256 247 0
-43 -255 248 0
-43 -261 251 0
-43 -262 252 0
-43 -263 253 0
-43 -264 254 0
-45 -244 238 0
-45 -243 237 0
-45 -258 247 0
-45 -257 248 0
-45 -262 249 0
-45 -261 250 0
-45 -265 253 0
-45 -266 254 0
-46 -246 238 0
-46 -245 237 0
-46 -260 247 0
-46 -259 248 0
-46 -264 249 0
-46 -263 250 0
-46 -266 251 0
-46 -265 252 0
-49 -242 240 0
-49 -241 239 0
-49 -250 248 0
-49 -249 247 0
-49 -261 257 0
-49 -262 258 0
-49 -263 259 0
-49 -264 260 0
-51 -244 240 0
-51 -243 239 0
-51 -252 248 0
-51 -251 247 0
-51 -262 255 0
-51 -261 256 0
-51 -265 259 0
-51 -266 260 0
-52 -246 240 0
-52 -245 239 0
-52 -254 248 0
-52 -253 247 0
-52 -264 255 0
-52 -263 256 0
-52 -266 257 0
-52 -265 258 0
-54 -244 242 0
-54 -243 241 0
-54 -252 250 0
-54 -251 249 0
-54 -258 256 0
-54 -257 255 0
-54 -265 263 0
-54 -266 264 0
-55 -246 242 0
-55 -245 241 0
-55 -254 250 0
-55 -253 249 0
-55 -260 256 0
-55 -259 255 0
-55 -266 261 0
-55 -265 262 0
-56 -246 244 0
-56 -245 243 0
-56 -254 252 0
-56 -253 251 0
-56 -260 258 0
-56 -259 257 0
-56 -264 262 0
-56 -263 261 0
-2 -1 -3 4 -57 87 0
-2 -1 -3 4 57 -87 0
-2 -1 -3 4 -87 117 0
-2 -1 -3 4 87 -117 0
-2 -5 -6 7 -59 89 0
-2 -5 -6 7 59 -89 0
-2 -5 -6 7 -89 147 0
-2 -5 -6 7 89 -147 0
-2 -8 -9 10 -61 91 0
-2 -8 -9 10 61 -91 0
-2 -8 -9 10 -91 177 0
-2 -8 -9 10 91 -177 0
-2 -11 -12 13 -63 93 0
-2 -11 -12 13 63 -93 0
-2 -11 -12 13 -93 207 0
-2 -11 -12 13 93 -207 0
-2 -14 -15 16 -65 95 0
-2 -14 -15 16 65 -95 0
-2 -14 -15 16 -95 237 0
-2 -14 -15 16 95 -237 0
-1 -5 -17 18 -67 119 0
-1 -5 -17 18 67 -119 0
-1 -5 -17 18 -119 149 0
-1 -5 -17 18 119 -149 0
-1 -8 -19 20 -69 121 0
-1 -8 -19 20 69 -121 0
-1 -8 -19 20 -121 179 0
-1 -8 -19 20 121 -179 0
-1 -11 -21 22 -71 123 0
-1 -11 -21 22 71 -123 0
-1 -11 -21 22 -123 209 0
-1 -11 -21 22 123 -209 0
-1 -14 -23 24 -73 125 0
-1 -14 -23 24 73 -125 0
-1 -14 -23 24 -125 239 0
-1 -14 -23 24 125 -239 0
-5 -8 -25 26 -75 151 0
-5 -8 -25 26 75 -151 0
-5 -8 -25 26 -151 181 0
-5 -8 -25 26 151 -181 0
-5 -11 -27 28 -77 153 0
-5 -11 -27 28 77 -153 0
-5 -11 -27 28 -153 211 0
-5 -11 -27 28 153 -211 0
-5 -14 -29 30 -79 155 0
-5 -14 -29 30 79 -155 0
-5 -14 -29 30 -155 241 0
-5 -14 -29 30 155 -241 0
-8 -11 -31 32 -81 183 0
-8 -11 -31 32 81 -183 0
-8 -11 -31 32 -183 213 0
-8 -11 -31 32 183 -213 0
-8 -14 -33 34 -83 185 0
-8 -14 -33 34 83 -185 0
-8 -14 -33 34 -185 243 0
-8 -14 -33 34 185 -243 0
-11 -14 -35 36 -85 215 0
-11 -14 -35 36 85 -215 0
-11 -14 -35 36 -215 245 0
-11 -14 -35 36 215 -245 0
-3 -6 -17 37 -97 127 0
-3 -6 -17 37 97 -127 0
-3 -6 -17 37 -127 157 0
-3 -6 -17 37 127 -157 0
-3 -9 -19 38 -99 129 0
-3 -9 -19 38 99 -129 0
-3 -9 -19 38 -129 187 0
-3 -9 -19 38 129 -187 0
-3 -12 -21 39 -101 131 0
-3 -12 -21 39 101 -131 0
-3 -12 -21 39 -131 217 0
-3 -12 -21 39 131 -217 0
-3 -15 -23 40 -103 133 0
-3 -15 -23 40 103 -133 0
-3 -15 -23 40 -133 247 0
-3 -15 -23 40 133 -247 0
-6 -9 -25 41 -105 159 0
-6 -9 -25 41 105 -159 0
-6 -9 -25 41 -159 189 0
-6 -9 -25 41 159 -189 0
-6 -12 -27 42 -107 161 0
-6 -12 -27 42 107 -161 0
-6 -12 -27 42 -161 219 0
-6 -12 -27 42 161 -219 0
-6 -15 -29 43 -109 163 0
-6 -15 -29 43 109 -163 0
-6 -15 -29 43 -163 249 0
-6 -15 -29 43 163 -249 0
-9 -12 -31 44 -111 191 0
-9 -12 -31 44 111 -191 0
-9 -12 -31 44 -191 221 0
-9 -12 -31 44 191 -221 0
-9 -15 -33 45 -113 193 0
-9 -15 -33 45 113 -193 0
-9 -15 -33 45 -193 251 0
-9 -15 -33 45 193 -251 0
-12 -15 -35 46 -115 223 0
-12 -15 -35 46 115 -223 0
-12 -15 -35 46 -223 253 0
-12 -15 -35 46 223 -253 0
-17 -19 -25 47 -135 165 0
-17 -19 -25 47 135 -165 0
-17 -19 -25 47 -165 195 0
-17 -19 -25 47 165 -195 0
-17 -21 -27 48 -137 167 0
-17 -21 -27 48 137 -167 0
-17 -21 -27 48 -167 225 0
-17 -21 -27 48 167 -225 0
-17 -23 -29 49 -139 169 0
-17 -23 -29 49 139 -169 0
-17 -23 -29 49 -169 255 0
-17 -23 -29 49 169 -255 0
-19 -21 -31 50 -141 197 0
-19 -21 -31 50 141 -197 0
-19 -21 -31 50 -197 227 0
-19 -21 -31 50 197 -227 0
-19 -23 -33 51 -143 199 0
-19 -23 -33 51 143 -199 0
-19 -23 -33 51 -199 257 0
-19 -23 -33 51 199 -257 0
-21 -23 -35 52 -145 229 0
-21 -23 -35 52 145 -229 0
-21 -23 -35 52 -229 259 0
-21 -23 -35 52 229 -259 0
-25 -27 -31 53 -171 201 0
-25 -27 -31 53 171 -201 0
-25 -27 -31 53 -201 231 0
-25 -27 -31 53 201 -231 0
-25 -29 -33 54 -173 203 0
-25 -29 -33 54 173 -203 0
-25 -29 -33 54 -203 261 0
-25 -29 -33 54 203 -261 0
-27 -29 -35 55 -175 233 0
-27 -29 -35 55 175 -233 0
-27 -29 -35 55 -233 263 0
-27 -29 -35 55 233 -263 0
-31 -33 -35 56 -205 235 0
-31 -33 -35 56 205 -235 0
-31 -33 -35 56 -235 265 0
-31 -33 -35 56 235 -265 0
2 -1 -267 118 0
2 -1 267 117 0
2 -5 -267 148 0
2 -5 267 147 0
2 -8 -267 178 0
2 -8 267 177 0
2 -11 -267 208 0
2 -11 267 207 0
2 -14 -267 238 0
2 -14 267 237 0
1 -5 -268 150 0
1 -5 268 149 0
1 -8 -268 180 0
1 -8 268 179 0
1 -11 -268 210 0
1 -11 268 209 0
1 -14 -268 240 0
1 -14 268 239 0
5 -8 -269 182 0
5 -8 269 181 0
5 -11 -269 212 0
5 -11 269 211 0
5 -14 -269 242 0
5 -14 269 241 0
8 -11 -270 214 0
8 -11 270 213 0
8 -14 -270 244 0
8 -14 270 243 0
11 -14 -271 246 0
11 -14 271 245 0
3 -2 -272 57 0
3 -2 272 58 0
3 -6 -272 158 0
3 -6 272 157 0
3 -9 -272 188 0
3 -9 272 187 0
3 -12 -272 218 0
3 -12 272 217 0
3 -15 -272 248 0
3 -15 272 247 0
6 -2 -273 59 0
6 -2 273 60 0
6 -9 -273 190 0
6 -9 273 189 0
6 -12 -273 220 0
6 -12 273 219 0
6 -15 -273 250 0
6 -15 273 249 0
9 -2 -274 61 0
9 -2 274 62 0
9 -12 -274 222 0
9 -12 274 221 0
9 -15 -274 252 0
9 -15 274 251 0
12 -2 -275 63 0
12 -2 275 64 0
12 -15 -275 254 0
12 -15 275 253 0
15 -2 -276 65 0
15 -2 276 66 0
17 -1 -277 67 0
17 -1 277 68 0
17 -3 -277 97 0
17 -3 277 98 0
17 -19 -277 196 0
17 -19 277 195 0
17 -21 -277 226 0
17 -21 277 225 0
17 -23 -277 256 0
17 -23 277 255 0
19 -1 -278 69 0
19 -1 278 70 0
19 -3 -278 99 0
19 -3 278 100 0
19 -21 -278 228 0
19 -21 278 227 0
19 -23 -278 258 0
19 -23 278 257 0
21 -1 -279 71 0
21 -1 279 72 0
21 -3 -279 101 0
21 -3 279 102 0
21 -23 -279 260 0
21 -23 279 259 0
23 -1 -280 73 0
23 -1 280 74 0
23 -3 -280 103 0
23 -3 280 104 0
25 -5 -281 75 0
25 -5 281 76 0
25 -6 -281 105 0
25 -6 281 106 0
25 -17 -281 135 0
25 -17 281 136 0
25 -27 -281 232 0
25 -27 281 231 0
25 -29 -281 262 0
25 -29 281 261 0
27 -5 -282 77 0
27 -5 282 78 0
27 -6 -282 107 0
27 -6 282 108 0
27 -17 -282 137 0
27 -17 282 138 0
27 -29 -282 264 0
27 -29 282 263 0
29 -5 -283 79 0
29 -5 283 80 0
29 -6 -283 109 0
29 -6 283 110 0
29 -17 -283 139 0
29 -17 283 140 0
31 -8 -284 81 0
31 -8 284 82 0
31 -9 -284 111 0
31 -9 284 112 0
31 -19 -284 141 0
31 -19 284 142 0
31 -25 -284 171 0
31 -25 284 172 0
31 -33 -284 266 0
31 -33 284 265 0
33 -8 -285 83 0
33 -8 285 84 0
33 -9 -285 113 0
33 -9 285 114 0
33 -19 -285 143 0
33 -19 285 144 0
33 -25 -285 173 0
33 -25 285 174 0
35 -11 -286 85 0
35 -11 286 86 0
35 -12 -286 115 0
35 -12 286 116 0
35 -21 -286 145 0
35 -21 286 146 0
35 -27 -286 175 0
35 -27 286 176 0
35 -31 -286 205 0
35 -31 286 206 0
2 3 -267 -272 268 0
2 3 267 272 -268 0
2 6 -267 -273 269 0
2 6 267 273 -269 0
2 9 -267 -274 270 0
2 9 267 274 -270 0
2 12 -267 -275 271 0
2 12 267 275 -271 0
2 15 -267 -276 287 0
2 15 267 276 -287 0
1 17 -268 -277 269 0
1 17 268 277 -269 0
1 19 -268 -278 270 0
1 19 268 278 -270 0
1 21 -268 -279 271 0
1 21 268 279 -271 0
1 23 -268 -280 287 0
1 23 268 280 -287 0
5 25 -269 -281 270 0
5 25 269 281 -270 0
5 27 -269 -282 271 0
5 27 269 282 -271 0
5 29 -269 -283 287 0
5 29 269 283 -287 0
8 31 -270 -284 271 0
8 31 270 284 -271 0
8 33 -270 -285 287 0
8 33 270 285 -287 0
11 35 -271 -286 287 0
11 35 271 286 -287 0
3 17 -272 -277 273 0
3 17 272 277 -273 0
3 19 -272 -278 274 0
3 19 272 278 -274 0
3 21 -272 -279 275 0
3 21 272 279 -275 0
3 23 -272 -280 276 0
3 23 272 280 -276 0
6 25 -273 -281 274 0
6 25 273 281 -274 0
6 27 -273 -282 275 0
6 27 273 282 -275 0
6 29 -273 -283 276 0
6 29 273 283 -276 0
9 31 -274 -284 275 0
9 31 274 284 -275 0
9 33 -274 -285 276 0
9 33 274 285 -276 0
12 35 -275 -286 276 0
12 35 275 286 -276 0
17 25 -277 -281 278 0
17 25 277 281 -278 0
17 27 -277 -282 279 0
17 27 277 282 -279 0
17 29 -277 -283 280 0
17 29 277 283 -280 0
19 31 -278 -284 279 0
19 31 278 284 -279 0
19 33 -278 -285 280 0
19 33 278 285 -280 0
21 35 -279 -286 280 0
21 35 279 286 -280 0
25 31 -281 -284 282 0
25 31 281 284 -282 0
25 33 -281 -285 283 0
25 33 281 285 -283 0
27 35 -282 -286 283 0
27 35 282 286 -283 0
31 35 -284 -286 285 0
31 35 284 286 -285 0
-288 2 0
-288 1 0
-288 3 0
-288 -4 0
-289 2 0
-289 5 0
-289 6 0
-289 -7 0
-290 2 0
-290 8 0
-290 9 0
-290 -10 0
-291 2 0
-291 11 0
-291 12 0
-291 -13 0
-292 2 0
-292 14 0
-292 15 0
-292 -16 0
-293 1 0
-293 5 0
-293 17 0
-293 -18 0
-294 1 0
-294 8 0
-294 19 0
-294 -20 0
-295 1 0
-295 11 0
-295 21 0
-295 -22 0
-296 1 0
-296 14 0
-296 23 0
-296 -24 0
-297 5 0
-297 8 0
-297 25 0
-297 -26 0
-298 5 0
-298 11 0
-298 27 0
-298 -28 0
-299 5 0
-299 14 0
-299 29 0
-299 -30 0
-300 8 0
-300 11 0
-300 31 0
-300 -32 0
-301 8 0
-301 14 0
-301 33 0
-301 -34 0
-302 11 0
-302 14 0
-302 35 0
-302 -36 0
-303 3 0
-303 6 0
-303 17 0
-303 -37 0
-304 3 0
-304 9 0
-304 19 0
-304 -38 0
-305 3 0
-305 12 0
-305 21 0
-305 -39 0
-306 3 0
-306 15 0
-306 23 0
-306 -40 0
-307 6 0
-307 9 0
-307 25 0
-307 -41 0
-308 6 0
-308 12 0
-308 27 0
-308 -42 0
-309 6 0
-309 15 0
-309 29 0
-309 -43 0
-310 9 0
-310 12 0
-310 31 0
-310 -44 0
-311 9 0
-311 15 0
-311 33 0
-311 -45 0
-312 12 0
-312 15 0
-312 35 0
-312 -46 0
-313 17 0
-313 19 0
-313 25 0
-313 -47 0
-314 17 0
-314 21 0
-314 27 0
-314 -48 0
-315 17 0
-315 23 0
-315 29 0
-315 -49 0
-316 19 0
-316 21 0
-316 31 0
-316 -50 0
-317 19 0
-317 23 0
-317 33 0
-317 -51 0
-318 21 0
-318 23 0
-318 35 0
-318 -52 0
-319 25 0
-319 27 0
-319 31 0
-319 -53 0
-320 25 0
-320 29 0
-320 33 0
-320 -54 0
-321 27 0
-321 29 0
-321 35 0
-321 -55 0
-322 31 0
-322 33 0
-322 35 0
-322 -56 0
288 323 0
-323 324 0
289 -323 325 0
-325 326 0
290 -325 327 0
-327 328 0
291 -327 329 0
-329 330 0
292 -329 331 0
-331 332 0
293 -331 333 0
-333 334 0
294 -333 335 0
-335 336 0
295 -335 337 0
-337 338 0
296 -337 339 0
-339 340 0
297 -339 341 0
-341 342 0
298 -341 343 0
-343 344 0
299 -343 345 0
-345 346 0
300 -345 347 0
-347 348 0
301 -347 349 0
-349 350 0
302 -349 351 0
-351 352 0
303 -351 353 0
-353 354 0
304 -353 355 0
-355 356 0
305 -355 357 0
-357 358 0
306 -357 359 0
-359 360 0
307 -359 361 0
-361 362 0
308 -361 363 0
-363 364 0
309 -363 365 0
-365 366 0
310 -365 367 0
-367 368 0
311 -367 0
289 324 0
-324 369 0
290 -324 326 0
-326 370 0
291 -326 328 0
-328 371 0
292 -328 330 0
-330 372 0
293 -330 332 0
-332 373 0
294 -332 334 0
-334 374 0
295 -334 336 0
-336 375 0
296 -336 338 0
-338 376 0
297 -338 340 0
-340 377 0
298 -340 342 0
-342 378 0
299 -342 344 0
-344 379 0
300 -344 346 0
-346 380 0
301 -346 348 0
-348 381 0
302 -348 350 0
-350 382 0
303 -350 352 0
-352 383 0
304 -352 354 0
-354 384 0
305 -354 356 0
-356 385 0
306 -356 358 0
-358 386 0
307 -358 360 0
-360 387 0
308 -360 362 0
-362 388 0
309 -362 364 0
-364 389 0
310 -364 366 0
-366 390 0
311 -366 368 0
-368 391 0
312 -368 0
290 369 0
-369 392 0
291 -369 370 0
-370 393 0
292 -370 371 0
-371 394 0
293 -371 372 0
-372 395 0
294 -372 373 0
-373 396 0
295 -373 374 0
-374 397 0
296 -374 375 0
-375 398 0
297 -375 376 0
-376 399 0
298 -376 377 0
-377 400 0
299 -377 378 0
-378 401 0
300 -378 379 0
-379 402 0
301 -379 380 0
-380 403 0
302 -380 381 0
-381 404 0
303 -381 382 0
-382 405 0
304 -382 383 0
-383 406 0
305 -383 384 0
-384 407 0
306 -384 385 0
-385 408 0
307 -385 386 0
-386 409 0
308 -386 387 0
-387 410 0
309 -387 388 0
-388 411 0
310 -388 389 0
-389 412 0
311 -389 390 0
-390 413 0
312 -390 391 0
-391 414 0
313 -391 0
291 392 0
-392 415 0
292 -392 393 0
-393 416 0
293 -393 394 0
-394 417 0
294 -394 395 0
-395 418 0
295 -395 396 0
-396 419 0
296 -396 397 0
-397 420 0
297 -397 398 0
-398 421 0
298 -398 399 0
-399 422 0
299 -399 400 0
-400 423 0
300 -400 401 0
-401 424 0
301 -401 402 0
-402 425 0
302 -402 403 0
-403 426 0
303 -403 404 0
-404 427 0
304 -404 405 0
-405 428 0
305 -405 406 0
-406 429 0
306 -406 407 0
-407 430 0
307 -407 408 0
-408 431 0
308 -408 409 0
-409 432 0
309 -409 410 0
-410 433 0
310 -410 411 0
-411 434 0
311 -411 412 0
-412 435 0
312 -412 413 0
-413 436 0
313 -413 414 0
-414 437 0
314 -414 0
292 415 0
-415 438 0
293 -415 416 0
-416 439 0
294 -416 417 0
-417 440 0
295 -417 418 0
-418 441 0
296 -418 419 0
-419 442 0
297 -419 420 0
-420 443 0
298 -420 421 0
-421 444 0
299 -421 422 0
-422 445 0
300 -422 423 0
-423 446 0
301 -423 424 0
-424 447 0
302 -424 425 0
-425 448 0
303 -425 426 0
-426 449 0
304 -426 427 0
-427 450 0
305 -427 428 0
-428 451 0
306 -428 429 0
-429 452 0
307 -429 430 0
-430 453 0
308 -430 431 0
-431 454 0
309 -431 432 0
-432 455 0
310 -432 433 0
-433 456 0
311 -433 434 0
-434 457 0
312 -434 435 0
-435 458 0
313 -435 436 0
-436 459 0
314 -436 437 0
-437 460 0
315 -437 0
293 438 0
-438 461 0
294 -438 439 0
-439 462 0
295 -439 440 0
-440 463 0
296 -440 441 0
-441 464 0
297 -441 442 0
-442 465 0
298 -442 443 0
-443 466 0
299 -443 444 0
-444 467 0
300 -444 445 0
-445 468 0
301 -445 446 0
-446 469 0
302 -446 447 0
-447 470 0
303 -447 448 0
-448 471 0
304 -448 449 0
-449 472 0
305 -449 450 0
-450 473 0
306 -450 451 0
-451 474 0
307 -451 452 0
-452 475 0
308 -452 453 0
-453 476 0
309 -453 454 0
-454 477 0
310 -454 455 0
-455 478 0
311 -455 456 0
-456 479 0
312 -456 457 0
-457 480 0
313 -457 458 0
-458 481 0
314 -458 459 0
-459 482 0
315 -459 460 0
-460 483 0
316 -460 0
294 461 0
-461 484 0
295 -461 462 0
-462 485 0
296 -462 463 0
-463 486 0
297 -463 464 0
-464 487 0
298 -464 465 0
-465 488 0
299 -465 466 0
-466 489 0
300 -466 467 0
-467 490 0
301 -467 468 0
-468 491 0
302 -468 469 0
-469 492 0
303 -469 470 0
-470 493 0
304 -470 471 0
-471 494 0
305 -471 472 0
-472 495 0
306 -472 473 0
-473 496 0
307 -473 474 0
-474 497 0
308 -474 475 0
-475 498 0
309 -475 476 0
-476 499 0
310 -476 477 0
-477 500 0
311 -477 478 0
-478 501 0
312 -478 479 0
-479 502 0
313 -479 480 0
-480 503 0
314 -480 481 0
-481 504 0
315 -481 482 0
-482 505 0
316 -482 483 0
-483 506 0
317 -483 0
295 484 0
-484 507 0
296 -484 485 0
-485 508 0
297 -485 486 0
-486 509 0
298 -486 487 0
-487 510 0
299 -487 488 0
-488 511 0
300 -488 489 0
-489 512 0
301 -489 490 0
-490 513 0
302 -490 491 0
-491 514 0
303 -491 492 0
-492 515 0
304 -492 493 0
-493 516 0
305 -493 494 0
-494 517 0
306 -494 495 0
-495 518 0
307 -495 496 0
-496 519 0
308 -496 497 0
-497 520 0
309 -497 498 0
-498 521 0
310 -498 499 0
-499 522 0
311 -499 500 0
-500 523 0
312 -500 501 0
-501 524 0
313 -501 502 0
-502 525 0
314 -502 503 0
-503 526 0
315 -503 504 0
-504 527 0
316 -504 505 0
-505 528 0
317 -505 506 0
-506 529 0
318 -506 0
296 507 0
-507 530 0
297 -507 508 0
-508 531 0
298 -508 509 0
-509 532 0
299 -509 510 0
-510 533 0
300 -510 511 0
-511 534 0
301 -511 512 0
-512 535 0
302 -512 513 0
-513 536 0
303 -513 514 0
-514 537 0
304 -514 515 0
-515 538 0
305 -515 516 0
-516 539 0
306 -516 517 0
-517 540 0
307 -517 518 0
-518 541 0
308 -518 519 0
-519 542 0
309 -519 520 0
-520 543 0
310 -520 521 0
-521 544 0
311 -521 522 0
-522 545 0
312 -522 523 0
-523 546 0
313 -523 524 0
-524 547 0
314 -524 525 0
-525 548 0
315 -525 526 0
-526 549 0
316 -526 527 0
-527 550 0
317 -527 528 0
-528 551 0
318 -528 529 0
-529 552 0
319 -529 0
297 530 0
-530 553 0
298 -530 531 0
-531 554 0
299 -531 532 0
-532 555 0
300 -532 533 0
-533 556 0
301 -533 534 0
-534 557 0
302 -534 535 0
-535 558 0
303 -535 536 0
-536 559 0
304 -536 537 0
-537 560 0
305 -537 538 0
-538 561 0
306 -538 539 0
-539 562 0
307 -539 540 0
-540 563 0
308 -540 541 0
-541 564 0
309 -541 542 0
-542 565 0
310 -542 543 0
-543 566 0
311 -543 544 0
-544 567 0
312 -544 545 0
-545 568 0
313 -545 546 0
-546 569 0
314 -546 547 0
-547 570 0
315 -547 548 0
-548 571 0
316 -548 549 0
-549 572 0
317 -549 550 0
-550 573 0
318 -550 551 0
-551 574 0
319 -551 552 0
-552 575 0
320 -552 0
298 553 0
-553 576 0
299 -553 554 0
-554 577 0
300 -554 555 0
-555 578 0
301 -555 556 0
-556 579 0
302 -556 557 0
-557 580 0
303 -557 558 0
-558 581 0
304 -558 559 0
-559 582 0
305 -559 560 0
-560 583 0
306 -560 561 0
-561 584 0
307 -561 562 0
-562 585 0
308 -562 563 0
-563 586 0
309 -563 564 0
-564 587 0
310 -564 565 0
-565 588 0
311 -565 566 0
-566 589 0
312 -566 567 0
-567 590 0
313 -567 568 0
-568 591 0
314 -568 569 0
-569 592 0
315 -569 570 0
-570 593 0
316 -570 571 0
-571 594 0
317 -571 572 0
-572 595 0
318 -572 573 0
-573 596 0
319 -573 574 0
-574 597 0
320 -574 575 0
-575 598 0
321 -575 0
299 576 0
300 -576 577 0
301 -577 578 0
302 -578 579 0
303 -579 580 0
304 -580 581 0
305 -581 582 0
306 -582 583 0
307 -583 584 0
308 -584 585 0
309 -585 586 0
310 -586 587 0
311 -587 588 0
312 -588 589 0
313 -589 590 0
314 -590 591 0
315 -591 592 0
316 -592 593 0
317 -593 594 0
318 -594 595 0
319 -595 596 0
320 -596 597 0
321 -597 598 0
322 -598 0
-288 -59 -68 0
-288 -67 -60 0
-288 -61 -70 0
-288 -69 -62 0
-288 -63 -72 0
-288 -71 -64 0
-288 -65 -74 0
-288 -73 -66 0
-288 -89 -98 0
-288 -97 -90 0
-288 -91 -100 0
-288 -99 -92 0
-288 -93 -102 0
-288 -101 -94 0
-288 -95 -104 0
-288 -103 -96 0
-288 -119 -128 0
-288 -127 -120 0
-288 -121 -130 0
-288 -129 -122 0
-288 -123 -132 0
-288 -131 -124 0
-288 -125 -134 0
-288 -133 -126 0
-289 -57 -67 0
-289 -68 -58 0
-289 -61 -76 0
-289 -75 -62 0
-289 -63 -78 0
-289 -77 -64 0
-289 -65 -80 0
-289 -79 -66 0
-289 -87 -97 0
-289 -98 -88 0
-289 -91 -106 0
-289 -105 -92 0
-289 -93 -108 0
-289 -107 -94 0
-289 -95 -110 0
-289 -109 -96 0
-289 -149 -158 0
-289 -157 -150 0
-289 -151 -160 0
-289 -159 -152 0
-289 -153 -162 0
-289 -161 -154 0
-289 -155 -164 0
-289 -163 -156 0
-290 -57 -69 0
-290 -70 -58 0
-290 -59 -75 0
-290 -76 -60 0
-290 -63 -82 0
-290 -81 -64 0
-290 -65 -84 0
-290 -83 -66 0
-290 -87 -99 0
-290 -100 -88 0
-290 -89 -105 0
-290 -106 -90 0
-290 -93 -112 0
-290 -111 -94 0
-290 -95 -114 0
-290 -113 -96 0
-290 -179 -188 0
-290 -187 -180 0
-290 -181 -190 0
-290 -189 -182 0
-290 -183 -192 0
-290 -191 -184 0
-290 -185 -194 0
-290 -193 -186 0
-291 -57 -71 0
-291 -72 -58 0
-291 -59 -77 0
-291 -78 -60 0
-291 -61 -81 0
-291 -82 -62 0
-291 -65 -86 0
-291 -85 -66 0
-291 -87 -101 0
-291 -102 -88 0
-291 -89 -107 0
-291 -108 -90 0
-291 -91 -111 0
-291 -112 -92 0
-291 -95 -116 0
-291 -115 -96 0
-291 -209 -218 0
-291 -217 -210 0
-291 -211 -220 0
-291 -219 -212 0
-291 -213 -222 0
-291 -221 -214 0
-291 -215 -224 0
-291 -223 -216 0
-292 -57 -73 0
-292 -74 -58 0
-292 -59 -79 0
-292 -80 -60 0
-292 -61 -83 0
-292 -84 -62 0
-292 -63 -85 0
-292 -86 -64 0
-292 -87 -103 0
-292 -104 -88 0
-292 -89 -109 0
-292 -110 -90 0
-292 -91 -113 0
-292 -114 -92 0
-292 -93 -115 0
-292 -116 -94 0
-292 -239 -248 0
-292 -247 -240 0
-292 -241 -250 0
-292 -249 -242 0
-292 -243 -252 0
-292 -251 -244 0
-292 -245 -254 0
-292 -253 -246 0
-293 -58 -59 0
-293 -60 -57 0
-293 -69 -76 0
-293 -75 -70 0
-293 -71 -78 0
-293 -77 -72 0
-293 -73 -80 0
-293 -79 -74 0
-293 -117 -127 0
-293 -128 -118 0
-293 -121 -136 0
-293 -135 -122 0
-293 -123 -138 0
-293 -137 -124 0
-293 -125 -140 0
-293 -139 -126 0
-293 -147 -157 0
-293 -158 -148 0
-293 -151 -166 0
-293 -165 -152 0
-293 -153 -168 0
-293 -167 -154 0
-293 -155 -170 0
-293 -169 -156 0
-294 -58 -61 0
-294 -62 -57 0
-294 -67 -75 0
-294 -76 -68 0
-294 -71 -82 0
-294 -81 -72 0
-294 -73 -84 0
-294 -83 -74 0
-294 -117 -129 0
-294 -130 -118 0
-294 -119 -135 0
-294 -136 -120 0
-294 -123 -142 0
-294 -141 -124 0
-294 -125 -144 0
-294 -143 -126 0
-294 -177 -187 0
-294 -188 -178 0
-294 -181 -196 0
-294 -195 -182 0
-294 -183 -198 0
-294 -197 -184 0
-294 -185 -200 0
-294 -199 -186 0
-295 -58 -63 0
-295 -64 -57 0
-295 -67 -77 0
-295 -78 -68 0
-295 -69 -81 0
-295 -82 -70 0
-295 -73 -86 0
-295 -85 -74 0
-295 -117 -131 0
-295 -132 -118 0
-295 -119 -137 0
-295 -138 -120 0
-295 -121 -141 0
-295 -142 -122 0
-295 -125 -146 0
-295 -145 -126 0
-295 -207 -217 0
-295 -218 -208 0
-295 -211 -226 0
-295 -225 -212 0
-295 -213 -228 0
-295 -227 -214 0
-295 -215 -230 0
-295 -229 -216 0
-296 -58 -65 0
-296 -66 -57 0
-296 -67 -79 0
-296 -80 -68 0
-296 -69 -83 0
-296 -84 -70 0
-296 -71 -85 0
-296 -86 -72 0
-296 -117 -133 0
-296 -134 -118 0
-296 -119 -139 0
-296 -140 -120 0
-296 -121 -143 0
-296 -144 -122 0
-296 -123 -145 0
-296 -146 -124 0
-296 -237 -247 0
-296 -248 -238 0
-296 -241 -256 0
-296 -255 -242 0
-296 -243 -258 0
-296 -257 -244 0
-296 -245 -260 0
-296 -259 -246 0
-297 -60 -61 0
-297 -62 -59 0
-297 -68 -69 0
-297 -70 -67 0
-297 -77 -82 0
-297 -81 -78 0
-297 -79 -84 0
-297 -83 -80 0
-297 -147 -159 0
-297 -160 -148 0
-297 -149 -165 0
-297 -166 -150 0
-297 -153 -172 0
-297 -171 -154 0
-297 -155 -174 0
-297 -173 -156 0
-297 -177 -189 0
-297 -190 -178 0
-297 -179 -195 0
-297 -196 -180 0
-297 -183 -202 0
-297 -201 -184 0
-297 -185 -204 0
-297 -203 -186 0
-298 -60 -63 0
-298 -64 -59 0
-298 -68 -71 0
-298 -72 -67 0
-298 -75 -81 0
-298 -82 -76 0
-298 -79 -86 0
-298 -85 -80 0
-298 -147 -161 0
-298 -162 -148 0
-298 -149 -167 0
-298 -168 -150 0
-298 -151 -171 0
-298 -172 -152 0
-298 -155 -176 0
-298 -175 -156 0
-298 -207 -219 0
-298 -220 -208 0
-298 -209 -225 0
-298 -226 -210 0
-298 -213 -232 0
-298 -231 -214 0
-298 -215 -234 0
-298 -233 -216 0
-299 -60 -65 0
-299 -66 -59 0
-299 -68 -73 0
-299 -74 -67 0
-299 -75 -83 0
-299 -84 -76 0
-299 -77 -85 0
-299 -86 -78 0
-299 -147 -163 0
-299 -164 -148 0
-299 -149 -169 0
-299 -170 -150 0
-299 -151 -173 0
-299 -174 -152 0
-299 -153 -175 0
-299 -176 -154 0
-299 -237 -249 0
-299 -250 -238 0
-299 -239 -255 0
-299 -256 -240 0
-299 -243 -262 0
-299 -261 -244 0
-299 -245 -264 0
-299 -263 -246 0
-300 -62 -63 0
-300 -64 -61 0
-300 -70 -71 0
-300 -72 -69 0
-300 -76 -77 0
-300 -78 -75 0
-300 -83 -86 0
-300 -85 -84 0
-300 -177 -191 0
-300 -192 -178 0
-300 -179 -197 0
-300 -198 -180 0
-300 -181 -201 0
-300 -202 -182 0
-300 -185 -206 0
-300 -205 -186 0
-300 -207 -221 0
-300 -222 -208 0
-300 -209 -227 0
-300 -228 -210 0
-300 -211 -231 0
-300 -232 -212 0
-300 -215 -236 0
-300 -235 -216 0
-301 -62 -65 0
-301 -66 -61 0
-301 -70 -73 0
-301 -74 -69 0
-301 -76 -79 0
-301 -80 -75 0
-301 -81 -85 0
-301 -86 -82 0
-301 -177 -193 0
-301 -194 -178 0
-301 -179 -199 0
-301 -200 -180 0
-301 -181 -203 0
-301 -204 -182 0
-301 -183 -205 0
-301 -206 -184 0
-301 -237 -251 0
-301 -252 -238 0
-301 -239 -257 0
-301 -258 -240 0
-301 -241 -261 0
-301 -262 -242 0
-301 -245 -266 0
-301 -265 -246 0
-302 -64 -65 0
-302 -66 -63 0
-302 -72 -73 0
-302 -74 -71 0
-302 -78 -79 0
-302 -80 -77 0
-302 -82 -83 0
-302 -84 -81 0
-302 -207 -223 0
-302 -224 -208 0
-302 -209 -229 0
-302 -230 -210 0
-302 -211 -233 0
-302 -234 -212 0
-302 -213 -235 0
-302 -236 -214 0
-302 -237 -253 0
-302 -254 -238 0
-302 -239 -259 0
-302 -260 -240 0
-302 -241 -263 0
-302 -264 -242 0
-302 -243 -265 0
-302 -266 -244 0
-303 -88 -89 0
-303 -90 -87 0
-303 -99 -106 0
-303 -105 -100 0
-303 -101 -108 0
-303 -107 -102 0
-303 -103 -110 0
-303 -109 -104 0
-303 -118 -119 0
-303 -120 -117 0
-303 -129 -136 0
-303 -135 -130 0
-303 -131 -138 0
-303 -137 -132 0
-303 -133 -140 0
-303 -139 -134 0
-303 -148 -149 0
-303 -150 -147 0
-303 -159 -166 0
-303 -165 -160 0
-303 -161 -168 0
-303 -167 -162 0
-303 -163 -170 0
-303 -169 -164 0
-304 -88 -91 0
-304 -92 -87 0
-304 -97 -105 0
-304 -106 -98 0
-304 -101 -112 0
-304 -111 -102 0
-304 -103 -114 0
-304 -113 -104 0
-304 -118 -121 0
-304 -122 -117 0
-304 -127 -135 0
-304 -136 -128 0
-304 -131 -142 0
-304 -141 -132 0
-304 -133 -144 0
-304 -143 -134 0
-304 -178 -179 0
-304 -180 -177 0
-304 -189 -196 0
-304 -195 -190 0
-304 -191 -198 0
-304 -197 -192 0
-304 -193 -200 0
-304 -199 -194 0
-305 -88 -93 0
-305 -94 -87 0
-305 -97 -107 0
-305 -108 -98 0
-305 -99 -111 0
-305 -112 -100 0
-305 -103 -116 0
-305 -115 -104 0
-305 -118 -123 0
-305 -124 -117 0
-305 -127 -137 0
-305 -138 -128 0
-305 -129 -141 0
-305 -142 -130 0
-305 -133 -146 0
-305 -145 -134 0
-305 -208 -209 0
-305 -210 -207 0
-305 -219 -226 0
-305 -225 -220 0
-305 -221 -228 0
-305 -227 -222 0
-305 -223 -230 0
-305 -229 -224 0
-306 -88 -95 0
-306 -96 -87 0
-306 -97 -109 0
-306 -110 -98 0
-306 -99 -113 0
-306 -114 -100 0
-306 -101 -115 0
-306 -116 -102 0
-306 -118 -125 0
-306 -126 -117 0
-306 -127 -139 0
-306 -140 -128 0
-306 -129 -143 0
-306 -144 -130 0
-306 -131 -145 0
-306 -146 -132 0
-306 -238 -239 0
-306 -240 -237 0
-306 -249 -256 0
-306 -255 -250 0
-306 -251 -258 0
-306 -257 -252 0
-306 -253 -260 0
-306 -259 -254 0
-307 -90 -91 0
-307 -92 -89 0
-307 -98 -99 0
-307 -100 -97 0
-307 -107 -112 0
-307 -111 -108 0
-307 -109 -114 0
-307 -113 -110 0
-307 -148 -151 0
-307 -152 -147 0
-307 -157 -165 0
-307 -166 -158 0
-307 -161 -172 0
-307 -171 -162 0
-307 -163 -174 0
-307 -173 -164 0
-307 -178 -181 0
-307 -182 -177 0
-307 -187 -195 0
-307 -196 -188 0
-307 -191 -202 0
-307 -201 -192 0
-307 -193 -204 0
-307 -203 -194 0
-308 -90 -93 0
-308 -94 -89 0
-308 -98 -101 0
-308 -102 -97 0
-308 -105 -111 0
-308 -112 -106 0
-308 -109 -116 0
-308 -115 -110 0
-308 -148 -153 0
-308 -154 -147 0
-308 -157 -167 0
-308 -168 -158 0
-308 -159 -171 0
-308 -172 -160 0
-308 -163 -176 0
-308 -175 -164 0
-308 -208 -211 0
-308 -212 -207 0
-308 -217 -225 0
-308 -226 -218 0
-308 -221 -232 0
-308 -231 -222 0
-308 -223 -234 0
-308 -233 -224 0
-309 -90 -95 0
-309 -96 -89 0
-309 -98 -103 0
-309 -104 -97 0
-309 -105 -113 0
-309 -114 -106 0
-309 -107 -115 0
-309 -116 -108 0
-309 -148 -155 0
-309 -156 -147 0
-309 -157 -169 0
-309 -170 -158 0
-309 -159 -173 0
-309 -174 -160 0
-309 -161 -175 0
-309 -176 -162 0
-309 -238 -241 0
-309 -242 -237 0
-309 -247 -255 0
-309 -256 -248 0
-309 -251 -262 0
-309 -261 -252 0
-309 -253 -264 0
-309 -263 -254 0
-310 -92 -93 0
-310 -94 -91 0
-310 -100 -101 0
-310 -102 -99 0
-310 -106 -107 0
-310 -108 -105 0
-310 -113 -116 0
-310 -115 -114 0
-310 -178 -183 0
-310 -184 -177 0
-310 -187 -197 0
-310 -198 -188 0
-310 -189 -201 0
-310 -202 -190 0
-310 -193 -206 0
-310 -205 -194 0
-310 -208 -213 0
-310 -214 -207 0
-310 -217 -227 0
-310 -228 -218 0
-310 -219 -231 0
-310 -232 -220 0
-310 -223 -236 0
-310 -235 -224 0
-311 -92 -95 0
-311 -96 -91 0
-311 -100 -103 0
-311 -104 -99 0
-311 -106 -109 0
-311 -110 -105 0
-311 -111 -115 0
-311 -116 -112 0
-311 -178 -185 0
-311 -186 -177 0
-311 -187 -199 0
-311 -200 -188 0
-311 -189 -203 0
-311 -204 -190 0
-311 -191 -205 0
-311 -206 -192 0
-311 -238 -243 0
-311 -244 -237 0
-311 -247 -257 0
-311 -258 -248 0
-311 -249 -261 0
-311 -262 -250 0
-311 -253 -266 0
-311 -265 -254 0
-312 -94 -95 0
-312 -96 -93 0
-312 -102 -103 0
-312 -104 -101 0
-312 -108 -109 0
-312 -110 -107 0
-312 -112 -113 0
-312 -114 -111 0
-312 -208 -215 0
-312 -216 -207 0
-312 -217 -229 0
-312 -230 -218 0
-312 -219 -233 0
-312 -234 -220 0
-312 -221 -235 0
-312 -236 -222 0
-312 -238 -245 0
-312 -246 -237 0
-312 -247 -259 0
-312 -260 -248 0
-312 -249 -263 0
-312 -264 -250 0
-312 -251 -265 0
-312 -266 -252 0
-313 -120 -121 0
-313 -122 -119 0
-313 -128 -129 0
-313 -130 -127 0
-313 -137 -142 0
-313 -141 -138 0
-313 -139 -144 0
-313 -143 -140 0
-313 -150 -151 0
-313 -152 -149 0
-313 -158 -159 0
-313 -160 -157 0
-313 -167 -172 0
-313 -171 -168 0
-313 -169 -174 0
-313 -173 -170 0
-313 -180 -181 0
-313 -182 -179 0
-313 -188 -189 0
-313 -190 -187 0
-313 -197 -202 0
-313 -201 -198 0
-313 -199 -204 0
-313 -203 -200 0
-314 -120 -123 0
-314 -124 -119 0
-314 -128 -131 0
-314 -132 -127 0
-314 -135 -141 0
-314 -142 -136 0
-314 -139 -146 0
-314 -145 -140 0
-314 -150 -153 0
-314 -154 -149 0
-314 -158 -161 0
-314 -162 -157 0
-314 -165 -171 0
-314 -172 -166 0
-314 -169 -176 0
-314 -175 -170 0
-314 -210 -211 0
-314 -212 -209 0
-314 -218 -219 0
-314 -220 -217 0
-314 -227 -232 0
-314 -231 -228 0
-314 -229 -234 0
-314 -233 -230 0
-315 -120 -125 0
-315 -126 -119 0
-315 -128 -133 0
-315 -134 -127 0
-315 -135 -143 0
-315 -144 -136 0
-315 -137 -145 0
-315 -146 -138 0
-315 -150 -155 0
-315 -156 -149 0
-315 -158 -163 0
-315 -164 -157 0
-315 -165 -173 0
-315 -174 -166 0
-315 -167 -175 0
-315 -176 -168 0
-315 -240 -241 0
-315 -242 -239 0
-315 -248 -249 0
-315 -250 -247 0
-315 -257 -262 0
-315 -261 -258 0
-315 -259 -264 0
-315 -263 -260 0
-316 -122 -123 0
-316 -124 -121 0
-316 -130 -131 0
-316 -132 -129 0
-316 -136 -137 0
-316 -138 -135 0
-316 -143 -146 0
-316 -145 -144 0
-316 -180 -183 0
-316 -184 -179 0
-316 -188 -191 0
-316 -192 -187 0
-316 -195 -201 0
-316 -202 -196 0
-316 -199 -206 0
-316 -205 -200 0
-316 -210 -213 0
-316 -214 -209 0
-316 -218 -221 0
-316 -222 -217 0
-316 -225 -231 0
-316 -232 -226 0
-316 -229 -236 0
-316 -235 -230 0
-317 -122 -125 0
-317 -126 -121 0
-317 -130 -133 0
-317 -134 -129 0
-317 -136 -139 0
-317 -140 -135 0
-317 -141 -145 0
-317 -146 -142 0
-317 -180 -185 0
-317 -186 -179 0
-317 -188 -193 0
-317 -194 -187 0
-317 -195 -203 0
-317 -204 -196 0
-317 -197 -205 0
-317 -206 -198 0
-317 -240 -243 0
-317 -244 -239 0
-317 -248 -251 0
-317 -252 -247 0
-317 -255 -261 0
-317 -262 -256 0
-317 -259 -266 0
-317 -265 -260 0
-318 -124 -125 0
-318 -126 -123 0
-318 -132 -133 0
-318 -134 -131 0
-318 -138 -139 0
-318 -140 -137 0
-318 -142 -143 0
-318 -144 -141 0
-318 -210 -215 0
-318 -216 -209 0
-318 -218 -223 0
-318 -224 -217 0
-318 -225 -233 0
-318 -234 -226 0
-318 -227 -235 0
-318 -236 -228 0
-318 -240 -245 0
-318 -246 -239 0
-318 -248 -253 0
-318 -254 -247 0
-318 -255 -263 0
-318 -264 -256 0
-318 -257 -265 0
-318 -266 -258 0
-319 -152 -153 0
-319 -154 -151 0
-319 -160 -161 0
-319 -162 -159 0
-319 -166 -167 0
-319 -168 -165 0
-319 -173 -176 0
-319 -175 -174 0
-319 -182 -183 0
-319 -184 -181 0
-319 -190 -191 0
-319 -192 -189 0
-319 -196 -197 0
-319 -198 -195 0
-319 -203 -206 0
-319 -205 -204 0
-319 -212 -213 0
-319 -214 -211 0
-319 -220 -221 0
-319 -222 -219 0
-319 -226 -227 0
-319 -228 -225 0
-319 -233 -236 0
-319 -235 -234 0
-320 -152 -155 0
-320 -156 -151 0
-320 -160 -163 0
-320 -164 -159 0
-320 -166 -169 0
-320 -170 -165 0
-320 -171 -175 0
-320 -176 -172 0
-320 -182 -185 0
-320 -186 -181 0
-320 -190 -193 0
-320 -194 -189 0
-320 -196 -199 0
-320 -200 -195 0
-320 -201 -205 0
-320 -206 -202 0
-320 -242 -243 0
-320 -244 -241 0
-320 -250 -251 0
-320 -252 -249 0
-320 -256 -257 0
-320 -258 -255 0
-320 -263 -266 0
-320 -265 -264 0
-321 -154 -155 0
-321 -156 -153 0
-321 -162 -163 0
-321 -164 -161 0
-321 -168 -169 0
-321 -170 -167 0
-321 -172 -173 0
-321 -174 -171 0
-321 -212 -215 0
-321 -216 -211 0
-321 -220 -223 0
-321 -224 -219 0
-321 -226 -229 0
-321 -230 -225 0
-321 -231 -235 0
-321 -236 -232 0
-321 -242 -245 0
-321 -246 -241 0
-321 -250 -253 0
-321 -254 -249 0
-321 -256 -259 0
-321 -260 -255 0
-321 -261 -265 0
-321 -266 -262 0
-322 -184 -185 0
-322 -186 -183 0
-322 -192 -193 0
-322 -194 -191 0
-322 -198 -199 0
-322 -200 -197 0
-322 -202 -203 0
-322 -204 -201 0
-322 -214 -215 0
-322 -216 -213 0
-322 -222 -223 0
-322 -224 -221 0
-322 -228 -229 0
-322 -230 -227 0
-322 -232 -233 0
-322 -234 -231 0
-322 -244 -245 0
-322 -246 -243 0
-322 -252 -253 0
-322 -254 -251 0
-322 -258 -259 0
-322 -260 -257 0
-322 -262 -263 0
-322 -264 -261 0
-599 4 0
-4 599 0
-600 599 0
-600 7 0
-599 -7 600 0
-601 599 0
-601 10 0
-599 -10 601 0
-602 599 0
-602 13 0
-599 -13 602 0
-603 599 0
-603 16 0
-599 -16 603 0
-604 600 0
-604 601 0
-600 -601 604 0
-605 600 0
-605 602 0
-600 -602 605 0
-606 600 0
-606 603 0
-600 -603 606 0
-607 601 0
-607 602 0
-601 -602 607 0
-608 601 0
-608 603 0
-601 -603 608 0
-609 602 0
-609 603 0
-602 -603 609 0
-610 7 0
-610 -4 0
-7 4 610 0
-611 610 0
-611 10 0
-610 -10 611 0
-612 610 0
-612 13 0
-610 -13 612 0
-613 610 0
-613 16 0
-610 -16 613 0
-614 611 0
-614 612 0
-611 -612 614 0
-615 611 0
-615 613 0
-611 -613 615 0
-616 612 0
-616 613 0
-612 -613 616 0
-617 10 0
-617 -4 0
-617 -7 0
-10 4 7 617 0
-618 617 0
-618 13 0
-617 -13 618 0
-619 617 0
-619 16 0
-617 -16 619 0
-620 618 0
-620 619 0
-618 -619 620 0
-621 13 0
-621 -4 0
-621 -7 0
-621 -10 0
-13 4 7 10 621 0
-622 621 0
-622 16 0
-621 -16 622 0
-623 16 0
-623 -4 0
-623 -7 0
-623 -10 0
-623 -13 0
-16 4 7 10 13 623 0
-624 18 0
-624 -4 0
-18 4 624 0
-625 624 0
-625 20 0
-624 -20 625 0
-626 624 0
-626 22 0
-624 -22 626 0
-627 624 0
-627 24 0
-624 -24 627 0
-628 625 0
-628 626 0
-625 -626 628 0
-629 625 0
-629 627 0
-625 -627 629 0
-630 626 0
-630 627 0
-626 -627 630 0
-631 20 0
-631 -4 0
-631 -18 0
-20 4 18 631 0
-632 631 0
-632 22 0
-631 -22 632 0
-633 631 0
-633 24 0
-631 -24 633 0
-634 632 0
-634 633 0
-632 -633 634 0
-635 22 0
-635 -4 0
-635 -18 0
-635 -20 0
-22 4 18 20 635 0
-636 635 0
-636 24 0
-635 -24 636 0
-637 24 0
-637 -4 0
-637 -18 0
-637 -20 0
-637 -22 0
-24 4 18 20 22 637 0
-638 26 0
-638 -7 0
-638 -18 0
-26 7 18 638 0
-639 638 0
-639 28 0
-638 -28 639 0
-640 638 0
-640 30 0
-638 -30 640 0
-641 639 0
-641 640 0
-639 -640 641 0
-642 28 0
-642 -7 0
-642 -18 0
-642 -26 0
-28 7 18 26 642 0
-643 642 0
-643 30 0
-642 -30 643 0
-644 30 0
-644 -7 0
-644 -18 0
-644 -26 0
-644 -28 0
-30 7 18 26 28 644 0
-645 32 0
-645 -10 0
-645 -20 0
-645 -26 0
-32 10 20 26 645 0
-646 645 0
-646 34 0
-645 -34 646 0
-647 34 0
-647 -10 0
-647 -20 0
-647 -26 0
-647 -32 0
-34 10 20 26 32 647 0
-648 36 0
-648 -13 0
-648 -22 0
-648 -28 0
-648 -32 0
-36 13 22 28 32 648 0
-649 37 0
-649 -4 0
-37 4 649 0
-650 649 0
-650 38 0
-649 -38 650 0
-651 649 0
-651 39 0
-649 -39 651 0
-652 649 0
-652 40 0
-649 -40 652 0
-653 650 0
-653 651 0
-650 -651 653 0
-654 650 0
-654 652 0
-650 -652 654 0
-655 651 0
-655 652 0
-651 -652 655 0
-656 38 0
-656 -4 0
-656 -37 0
-38 4 37 656 0
-657 656 0
-657 39 0
-656 -39 657 0
-658 656 0
-658 40 0
-656 -40 658 0
-659 657 0
-659 658 0
-657 -658 659 0
-660 39 0
-660 -4 0
-660 -37 0
-660 -38 0
-39 4 37 38 660 0
-661 660 0
-661 40 0
-660 -40 661 0
-662 40 0
-662 -4 0
-662 -37 0
-662 -38 0
-662 -39 0
-40 4 37 38 39 662 0
-663 41 0
-663 -7 0
-663 -37 0
-41 7 37 663 0
-664 663 0
-664 42 0
-663 -42 664 0
-665 663 0
-665 43 0
-663 -43 665 0
-666 664 0
-666 665 0
-664 -665 666 0
-667 42 0
-667 -7 0
-667 -37 0
-667 -41 0
-42 7 37 41 667 0
-668 667 0
-668 43 0
-667 -43 668 0
-669 43 0
-669 -7 0
-669 -37 0
-669 -41 0
-669 -42 0
-43 7 37 41 42 669 0
-670 44 0
-670 -10 0
-670 -38 0
-670 -41 0
-44 10 38 41 670 0
-671 670 0
-671 45 0
-670 -45 671 0
-672 45 0
-672 -10 0
-672 -38 0
-672 -41 0
-672 -44 0
-45 10 38 41 44 672 0
-673 46 0
-673 -13 0
-673 -39 0
-673 -42 0
-673 -44 0
-46 13 39 42 44 673 0
-674 47 0
-674 -18 0
-674 -37 0
-47 18 37 674 0
-675 674 0
-675 48 0
-674 -48 675 0
-676 674 0
-676 49 0
-674 -49 676 0
-677 675 0
-677 676 0
-675 -676 677 0
-678 48 0
-678 -18 0
-678 -37 0
-678 -47 0
-48 18 37 47 678 0
-679 678 0
-679 49 0
-678 -49 679 0
-680 49 0
-680 -18 0
-680 -37 0
-680 -47 0
-680 -48 0
-49 18 37 47 48 680 0
-681 50 0
-681 -20 0
-681 -38 0
-681 -47 0
-50 20 38 47 681 0
-682 681 0
-682 51 0
-681 -51 682 0
-683 51 0
-683 -20 0
-683 -38 0
-683 -47 0
-683 -50 0
-51 20 38 47 50 683 0
-684 52 0
-684 -22 0
-684 -39 0
-684 -48 0
-684 -50 0
-52 22 39 48 50 684 0
-685 53 0
-685 -26 0
-685 -41 0
-685 -47 0
-53 26 41 47 685 0
-686 685 0
-686 54 0
-685 -54 686 0
-687 54 0
-687 -26 0
-687 -41 0
-687 -47 0
-687 -53 0
-54 26 41 47 53 687 0
-688 55 0
-688 -28 0
-688 -42 0
-688 -48 0
-688 -53 0
-55 28 42 48 53 688 0
-689 56 0
-689 -32 0
-689 -44 0
-689 -50 0
-689 -53 0
-56 32 44 50 53 689 0
2 690 0
-690 691 0
1 -690 692 0
-692 693 0
5 -692 694 0
-694 695 0
8 -694 0
1 691 0
-691 696 0
5 -691 693 0
-693 697 0
8 -693 695 0
-695 698 0
11 -695 0
5 696 0
-696 699 0
8 -696 697 0
-697 700 0
11 -697 698 0
-698 701 0
14 -698 0
8 699 0
-699 702 0
11 -699 700 0
-700 703 0
14 -700 701 0
-701 704 0
3 -701 0
11 702 0
-702 705 0
14 -702 703 0
-703 706 0
3 -703 704 0
-704 707 0
6 -704 0
14 705 0
-705 708 0
3 -705 706 0
-706 709 0
6 -706 707 0
-707 710 0
9 -707 0
3 708 0
-708 711 0
6 -708 709 0
-709 712 0
9 -709 710 0
-710 713 0
12 -710 0
6 711 0
-711 714 0
9 -711 712 0
-712 715 0
12 -712 713 0
-713 716 0
15 -713 0
9 714 0
-714 717 0
12 -714 715 0
-715 718 0
15 -715 716 0
-716 719 0
17 -716 0
12 717 0
-717 720 0
15 -717 718 0
-718 721 0
17 -718 719 0
-719 722 0
19 -719 0
15 720 0
-720 723 0
17 -720 721 0
-721 724 0
19 -721 722 0
-722 725 0
21 -722 0
17 723 0
-723 726 0
19 -723 724 0
-724 727 0
21 -724 725 0
-725 728 0
23 -725 0
19 726 0
-726 729 0
21 -726 727 0
-727 730 0
23 -727 728 0
-728 731 0
25 -728 0
21 729 0
-729 732 0
23 -729 730 0
-730 733 0
25 -730 731 0
-731 734 0
27 -731 0
23 732 0
-732 735 0
25 -732 733 0
-733 736 0
27 -733 734 0
-734 737 0
29 -734 0
25 735 0
-735 738 0
27 -735 736 0
-736 739 0
29 -736 737 0
-737 740 0
31 -737 0
27 738 0
-738 741 0
29 -738 739 0
-739 742 0
31 -739 740 0
-740 743 0
33 -740 0
29 741 0
-741 744 0
31 -741 742 0
-742 745 0
33 -742 743 0
-743 746 0
35 -743 0
31 744 0
-744 747 0
33 -744 745 0
-745 748 0
35 -745 746 0
-746 749 0
-599 -746 0
33 747 0
-747 750 0
35 -747 748 0
-748 751 0
-599 -748 749 0
-749 752 0
-600 -749 0
35 750 0
-750 753 0
-599 -750 751 0
-751 754 0
-600 -751 752 0
-752 755 0
-600 -752 0
-599 753 0
-753 756 0
-600 -753 754 0
-754 757 0
-600 -754 755 0
-755 758 0
-601 -755 0
-600 756 0
-756 759 0
-600 -756 757 0
-757 760 0
-601 -757 758 0
-758 761 0
-601 -758 0
-600 759 0
-759 762 0
-601 -759 760 0
-760 763 0
-601 -760 761 0
-761 764 0
-602 -761 0
-601 762 0
-762 765 0
-601 -762 763 0
-763 766 0
-602 -763 764 0
-764 767 0
-602 -764 0
-601 765 0
-765 768 0
-602 -765 766 0
-766 769 0
-602 -766 767 0
-767 770 0
-603 -767 0
-602 768 0
-768 771 0
-602 -768 769 0
-769 772 0
-603 -769 770 0
-770 773 0
-603 -770 0
-602 771 0
-771 774 0
-603 -771 772 0
-772 775 0
-603 -772 773 0
-773 776 0
-604 -773 0
-603 774 0
-774 777 0
-603 -774 775 0
-775 778 0
-604 -775 776 0
-776 779 0
-605 -776 0
-603 777 0
-777 780 0
-604 -777 778 0
-778 781 0
-605 -778 779 0
-779 782 0
-606 -779 0
-604 780 0
-780 783 0
-605 -780 781 0
-781 784 0
-606 -781 782 0
-782 785 0
-607 -782 0
-605 783 0
-783 786 0
-606 -783 784 0
-784 787 0
-607 -784 785 0
-785 788 0
-608 -785 0
-606 786 0
-786 789 0
-607 -786 787 0
-787 790 0
-608 -787 788 0
-788 791 0
-609 -788 0
-607 789 0
-789 792 0
-608 -789 790 0
-790 793 0
-609 -790 791 0
-791 794 0
-610 -791 0
-608 792 0
-792 795 0
-609 -792 793 0
-793 796 0
-610 -793 794 0
-794 797 0
-611 -794 0
-609 795 0
-795 798 0
-610 -795 796 0
-796 799 0
-611 -796 797 0
-797 800 0
-611 -797 0
-610 798 0
-798 801 0
-611 -798 799 0
-799 802 0
-611 -799 800 0
-800 803 0
-612 -800 0
-611 801 0
-801 804 0
-611 -801 802 0
-802 805 0
-612 -802 803 0
-803 806 0
-612 -803 0
-611 804 0
-804 807 0
-612 -804 805 0
-805 808 0
-612 -805 806 0
-806 809 0
-613 -806 0
-612 807 0
-807 810 0
-612 -807 808 0
-808 811 0
-613 -808 809 0
-809 812 0
-613 -809 0
-612 810 0
-810 813 0
-613 -810 811 0
-811 814 0
-613 -811 812 0
-812 815 0
-614 -812 0
-613 813 0
-813 816 0
-613 -813 814 0
-814 817 0
-614 -814 815 0
-815 818 0
-615 -815 0
-613 816 0
-816 819 0
-614 -816 817 0
-817 820 0
-615 -817 818 0
-818 821 0
-616 -818 0
-614 819 0
-819 822 0
-615 -819 820 0
-820 823 0
-616 -820 821 0
-821 824 0
-617 -821 0
-615 822 0
-822 825 0
-616 -822 823 0
-823 826 0
-617 -823 824 0
-824 827 0
-618 -824 0
-616 825 0
-825 828 0
-617 -825 826 0
-826 829 0
-618 -826 827 0
-827 830 0
-618 -827 0
-617 828 0
-828 831 0
-618 -828 829 0
-829 832 0
-618 -829 830 0
-830 833 0
-619 -830 0
-618 831 0
-831 834 0
-618 -831 832 0
-832 835 0
-619 -832 833 0
-833 836 0
-619 -833 0
-618 834 0
-834 837 0
-619 -834 835 0
-835 838 0
-619 -835 836 0
-836 839 0
-620 -836 0
-619 837 0
-837 840 0
-619 -837 838 0
-838 841 0
-620 -838 839 0
-839 842 0
-621 -839 0
-619 840 0
-840 843 0
-620 -840 841 0
-841 844 0
-621 -841 842 0
-842 845 0
-622 -842 0
-620 843 0
-843 846 0
-621 -843 844 0
-844 847 0
-622 -844 845 0
-845 848 0
-622 -845 0
-621 846 0
-846 849 0
-622 -846 847 0
-847 850 0
-622 -847 848 0
-848 851 0
-623 -848 0
-622 849 0
-849 852 0
-622 -849 850 0
-850 853 0
-623 -850 851 0
-851 854 0
-624 -851 0
-622 852 0
-852 855 0
-623 -852 853 0
-853 856 0
-624 -853 854 0
-854 857 0
-625 -854 0
-623 855 0
-855 858 0
-624 -855 856 0
-856 859 0
-625 -856 857 0
-857 860 0
-625 -857 0
-624 858 0
-858 861 0
-625 -858 859 0
-859 862 0
-625 -859 860 0
-860 863 0
-626 -860 0
-625 861 0
-861 864 0
-625 -861 862 0
-862 865 0
-626 -862 863 0
-863 866 0
-626 -863 0
-625 864 0
-864 867 0
-626 -864 865 0
-865 868 0
-626 -865 866 0
-866 869 0
-627 -866 0
-626 867 0
-867 870 0
-626 -867 868 0
-868 871 0
-627 -868 869 0
-869 872 0
-627 -869 0
-626 870 0
-870 873 0
-627 -870 871 0
-871 874 0
-627 -871 872 0
-872 875 0
-628 -872 0
-627 873 0
-873 876 0
-627 -873 874 0
-874 877 0
-628 -874 875 0
-875 878 0
-629 -875 0
-627 876 0
-876 879 0
-628 -876 877 0
-877 880 0
-629 -877 878 0
-878 881 0
-630 -878 0
-628 879 0
-879 882 0
-629 -879 880 0
-880 883 0
-630 -880 881 0
-881 884 0
-631 -881 0
-629 882 0
-882 885 0
-630 -882 883 0
-883 886 0
-631 -883 884 0
-884 887 0
-632 -884 0
-630 885 0
-885 888 0
-631 -885 886 0
-886 889 0
-632 -886 887 0
-887 890 0
-632 -887 0
-631 888 0
-888 891 0
-632 -888 889 0
-889 892 0
-632 -889 890 0
-890 893 0
-633 -890 0
-632 891 0
-891 894 0
-632 -891 892 0
-892 895 0
-633 -892 893 0
-893 896 0
-633 -893 0
-632 894 0
-894 897 0
-633 -894 895 0
-895 898 0
-633 -895 896 0
-896 899 0
-634 -896 0
-633 897 0
-897 900 0
-633 -897 898 0
-898 901 0
-634 -898 899 0
-899 902 0
-635 -899 0
-633 900 0
-900 903 0
-634 -900 901 0
-901 904 0
-635 -901 902 0
-902 905 0
-636 -902 0
-634 903 0
-903 906 0
-635 -903 904 0
-904 907 0
-636 -904 905 0
-905 908 0
-636 -905 0
-635 906 0
-906 909 0
-636 -906 907 0
-907 910 0
-636 -907 908 0
-908 911 0
-637 -908 0
-636 909 0
-909 912 0
-636 -909 910 0
-910 913 0
-637 -910 911 0
-911 914 0
-638 -911 0
-636 912 0
-912 915 0
-637 -912 913 0
-913 916 0
-638 -913 914 0
-914 917 0
-639 -914 0
-637 915 0
-915 918 0
-638 -915 916 0
-916 919 0
-639 -916 917 0
-917 920 0
-639 -917 0
-638 918 0
-918 921 0
-639 -918 919 0
-919 922 0
-639 -919 920 0
-920 923 0
-640 -920 0
-639 921 0
-921 924 0
-639 -921 922 0
-922 925 0
-640 -922 923 0
-923 926 0
-640 -923 0
-639 924 0
-924 927 0
-640 -924 925 0
-925 928 0
-640 -925 926 0
-926 929 0
-641 -926 0
-640 927 0
-927 930 0
-640 -927 928 0
-928 931 0
-641 -928 929 0
-929 932 0
-642 -929 0
-640 930 0
-930 933 0
-641 -930 931 0
-931 934 0
-642 -931 932 0
-932 935 0
-643 -932 0
-641 933 0
-933 936 0
-642 -933 934 0
-934 937 0
-643 -934 935 0
-935 938 0
-643 -935 0
-642 936 0
-936 939 0
-643 -936 937 0
-937 940 0
-643 -937 938 0
-938 941 0
-644 -938 0
-643 939 0
-939 942 0
-643 -939 940 0
-940 943 0
-644 -940 941 0
-941 944 0
-645 -941 0
-643 942 0
-942 945 0
-644 -942 943 0
-943 946 0
-645 -943 944 0
-944 947 0
-646 -944 0
-644 945 0
-945 948 0
-645 -945 946 0
-946 949 0
-646 -946 947 0
-947 950 0
-646 -947 0
-645 948 0
-948 951 0
-646 -948 949 0
-949 952 0
-646 -949 950 0
-950 953 0
-647 -950 0
-646 951 0
-951 954 0
-646 -951 952 0
-952 955 0
-647 -952 953 0
-953 956 0
-648 -953 0
-646 954 0
-954 957 0
-647 -954 955 0
-955 958 0
-648 -955 956 0
-956 959 0
-649 -956 0
-647 957 0
-957 960 0
-648 -957 958 0
-958 961 0
-649 -958 959 0
-959 962 0
-650 -959 0
-648 960 0
-960 963 0
-649 -960 961 0
-961 964 0
-650 -961 962 0
-962 965 0
-650 -962 0
-649 963 0
-963 966 0
-650 -963 964 0
-964 967 0
-650 -964 965 0
-965 968 0
-651 -965 0
-650 966 0
-966 969 0
-650 -966 967 0
-967 970 0
-651 -967 968 0
-968 971 0
-651 -968 0
-650 969 0
-969 972 0
-651 -969 970 0
-970 973 0
-651 -970 971 0
-971 974 0
-652 -971 0
-651 972 0
-972 975 0
-651 -972 973 0
-973 976 0
-652 -973 974 0
-974 977 0
-652 -974 0
-651 975 0
-975 978 0
-652 -975 976 0
-976 979 0
-652 -976 977 0
-977 980 0
-653 -977 0
-652 978 0
-978 981 0
-652 -978 979 0
-979 982 0
-653 -979 980 0
-980 983 0
-654 -980 0
-652 981 0
-981 984 0
-653 -981 982 0
-982 985 0
-654 -982 983 0
-983 986 0
-655 -983 0
-653 984 0
-984 987 0
-654 -984 985 0
-985 988 0
-655 -985 986 0
-986 989 0
-656 -986 0
-654 987 0
-987 990 0
-655 -987 988 0
-988 991 0
-656 -988 989 0
-989 992 0
-657 -989 0
-655 990 0
-990 993 0
-656 -990 991 0
-991 994 0
-657 -991 992 0
-992 995 0
-657 -992 0
-656 993 0
-993 996 0
-657 -993 994 0
-994 997 0
-657 -994 995 0
-995 998 0
-658 -995 0
-657 996 0
-996 999 0
-657 -996 997 0
-997 1000 0
-658 -997 998 0
-998 1001 0
-658 -998 0
-657 999 0
-999 1002 0
-658 -999 1000 0
-1000 1003 0
-658 -1000 1001 0
-1001 1004 0
-659 -1001 0
-658 1002 0
-1002 1005 0
-658 -1002 1003 0
-1003 1006 0
-659 -1003 1004 0
-1004 1007 0
-660 -1004 0
-658 1005 0
-1005 1008 0
-659 -1005 1006 0
-1006 1009 0
-660 -1006 1007 0
-1007 1010 0
-661 -1007 0
-659 1008 0
-1008 1011 0
-660 -1008 1009 0
-1009 1012 0
-661 -1009 1010 0
-1010 1013 0
-661 -1010 0
-660 1011 0
-1011 1014 0
-661 -1011 1012 0
-1012 1015 0
-661 -1012 1013 0
-1013 1016 0
-662 -1013 0
-661 1014 0
-1014 1017 0
-661 -1014 1015 0
-1015 1018 0
-662 -1015 1016 0
-1016 1019 0
-663 -1016 0
-661 1017 0
-1017 1020 0
-662 -1017 1018 0
-1018 1021 0
-663 -1018 1019 0
-1019 1022 0
-664 -1019 0
-662 1020 0
-1020 1023 0
-663 -1020 1021 0
-1021 1024 0
-664 -1021 1022 0
-1022 1025 0
-664 -1022 0
-663 1023 0
-1023 1026 0
-664 -1023 1024 0
-1024 1027 0
-664 -1024 1025 0
-1025 1028 0
-665 -1025 0
-664 1026 0
-1026 1029 0
-664 -1026 1027 0
-1027 1030 0
-665 -1027 1028 0
-1028 1031 0
-665 -1028 0
-664 1029 0
-1029 1032 0
-665 -1029 1030 0
-1030 1033 0
-665 -1030 1031 0
-1031 1034 0
-666 -1031 0
-665 1032 0
-1032 1035 0
-665 -1032 1033 0
-1033 1036 0
-666 -1033 1034 0
-1034 1037 0
-667 -1034 0
-665 1035 0
-1035 1038 0
-666 -1035 1036 0
-1036 1039 0
-667 -1036 1037 0
-1037 1040 0
-668 -1037 0
-666 1038 0
-1038 1041 0
-667 -1038 1039 0
-1039 1042 0
-668 -1039 1040 0
-1040 1043 0
-668 -1040 0
-667 1041 0
-1041 1044 0
-668 -1041 1042 0
-1042 1045 0
-668 -1042 1043 0
-1043 1046 0
-669 -1043 0
-668 1044 0
-1044 1047 0
-668 -1044 1045 0
-1045 1048 0
-669 -1045 1046 0
-1046 1049 0
-670 -1046 0
-668 1047 0
-1047 1050 0
-669 -1047 1048 0
-1048 1051 0
-670 -1048 1049 0
-1049 1052 0
-671 -1049 0
-669 1050 0
-1050 1053 0
-670 -1050 1051 0
-1051 1054 0
-671 -1051 1052 0
-1052 1055 0
-671 -1052 0
-670 1053 0
-1053 1056 0
-671 -1053 1054 0
-1054 1057 0
-671 -1054 1055 0
-1055 1058 0
-672 -1055 0
-671 1056 0
-1056 1059 0
-671 -1056 1057 0
-1057 1060 0
-672 -1057 1058 0
-1058 1061 0
-673 -1058 0
-671 1059 0
-1059 1062 0
-672 -1059 1060 0
-1060 1063 0
-673 -1060 1061 0
-1061 1064 0
-674 -1061 0
-672 1062 0
-1062 1065 0
-673 -1062 1063 0
-1063 1066 0
-674 -1063 1064 0
-1064 1067 0
-675 -1064 0
-673 1065 0
-1065 1068 0
-674 -1065 1066 0
-1066 1069 0
-675 -1066 1067 0
-1067 1070 0
-675 -1067 0
-674 1068 0
-1068 1071 0
-675 -1068 1069 0
-1069 1072 0
-675 -1069 1070 0
-1070 1073 0
-676 -1070 0
-675 1071 0
-1071 1074 0
-675 -1071 1072 0
-1072 1075 0
-676 -1072 1073 0
-1073 1076 0
-676 -1073 0
-675 1074 0
-1074 1077 0
-676 -1074 1075 0
-1075 1078 0
-676 -1075 1076 0
-1076 1079 0
-677 -1076 0
-676 1077 0
-1077 1080 0
-676 -1077 1078 0
-1078 1081 0
-677 -1078 1079 0
-1079 1082 0
-678 -1079 0
-676 1080 0
-1080 1083 0
-677 -1080 1081 0
-1081 1084 0
-678 -1081 1082 0
-1082 1085 0
-679 -1082 0
-677 1083 0
-1083 1086 0
-678 -1083 1084 0
-1084 1087 0
-679 -1084 1085 0
-1085 1088 0
-679 -1085 0
-678 1086 0
-1086 1089 0
-679 -1086 1087 0
-1087 1090 0
-679 -1087 1088 0
-1088 1091 0
-680 -1088 0
-679 1089 0
-1089 1092 0
-679 -1089 1090 0
-1090 1093 0
-680 -1090 1091 0
-1091 1094 0
-681 -1091 0
-679 1092 0
-1092 1095 0
-680 -1092 1093 0
-1093 1096 0
-681 -1093 1094 0
-1094 1097 0
-682 -1094 0
-680 1095 0
-1095 1098 0
-681 -1095 1096 0
-1096 1099 0
-682 -1096 1097 0
-1097 1100 0
-682 -1097 0
-681 1098 0
-1098 1101 0
-682 -1098 1099 0
-1099 1102 0
-682 -1099 1100 0
-1100 1103 0
-683 -1100 0
-682 1101 0
-1101 1104 0
-682 -1101 1102 0
-1102 1105 0
-683 -1102 1103 0
-1103 1106 0
-684 -1103 0
-682 1104 0
-1104 1107 0
-683 -1104 1105 0
-1105 1108 0
-684 -1105 1106 0
-1106 1109 0
-685 -1106 0
-683 1107 0
-1107 1110 0
-684 -1107 1108 0
-1108 1111 0
-685 -1108 1109 0
-1109 1112 0
-686 -1109 0
-684 1110 0
-1110 1113 0
-685 -1110 1111 0
-1111 1114 0
-686 -1111 1112 0
-1112 1115 0
-686 -1112 0
-685 1113 0
-1113 1116 0
-686 -1113 1114 0
-1114 1117 0
-686 -1114 1115 0
-1115 1118 0
-687 -1115 0
-686 1116 0
-1116 1119 0
-686 -1116 1117 0
-1117 1120 0
-687 -1117 1118 0
-1118 1121 0
-688 -1118 0
-686 1119 0
-687 -1119 1120 0
-688 -1120 1121 0
-689 -1121 0
-288 1122 0
-1122 1123 0
-289 -1122 1124 0
-1124 1125 0
-290 -1124 1126 0
-1126 1127 0
-291 -1126 1128 0
-1128 1129 0
-292 -1128 1130 0
-1130 1131 0
-293 -1130 1132 0
-1132 1133 0
-294 -1132 1134 0
-1134 1135 0
-295 -1134 1136 0
-1136 1137 0
-296 -1136 1138 0
-1138 1139 0
-297 -1138 1140 0
-1140 1141 0
-298 -1140 1142 0
-1142 1143 0
-299 -1142 1144 0
-1144 1145 0
-300 -1144 1146 0
-1146 1147 0
-301 -1146 1148 0
-1148 1149 0
-302 -1148 1150 0
-1150 1151 0
2 -1150 1152 0
-1152 1153 0
1 -1152 1154 0
-1154 1155 0
5 -1154 1156 0
-1156 1157 0
8 -1156 1158 0
-1158 1159 0
11 -1158 1160 0
-1160 1161 0
14 -1160 0
-289 1123 0
-1123 1162 0
-290 -1123 1125 0
-1125 1163 0
-291 -1125 1127 0
-1127 1164 0
-292 -1127 1129 0
-1129 1165 0
-293 -1129 1131 0
-1131 1166 0
-294 -1131 1133 0
-1133 1167 0
-295 -1133 1135 0
-1135 1168 0
-296 -1135 1137 0
-1137 1169 0
-297 -1137 1139 0
-1139 1170 0
-298 -1139 1141 0
-1141 1171 0
-299 -1141 1143 0
-1143 1172 0
-300 -1143 1145 0
-1145 1173 0
-301 -1145 1147 0
-1147 1174 0
-302 -1147 1149 0
-1149 1175 0
2 -1149 1151 0
-1151 1176 0
1 -1151 1153 0
-1153 1177 0
5 -1153 1155 0
-1155 1178 0
8 -1155 1157 0
-1157 1179 0
11 -1157 1159 0
-1159 1180 0
14 -1159 1161 0
-1161 1181 0
599 -1161 0
-290 1162 0
-1162 1182 0
-291 -1162 1163 0
-1163 1183 0
-292 -1163 1164 0
-1164 1184 0
-293 -1164 1165 0
-1165 1185 0
-294 -1165 1166 0
-1166 1186 0
-295 -1166 1167 0
-1167 1187 0
-296 -1167 1168 0
-1168 1188 0
-297 -1168 1169 0
-1169 1189 0
-298 -1169 1170 0
-1170 1190 0
-299 -1170 1171 0
-1171 1191 0
-300 -1171 1172 0
-1172 1192 0
-301 -1172 1173 0
-1173 1193 0
-302 -1173 1174 0
-1174 1194 0
2 -1174 1175 0
-1175 1195 0
1 -1175 1176 0
-1176 1196 0
5 -1176 1177 0
-1177 1197 0
8 -1177 1178 0
-1178 1198 0
11 -1178 1179 0
-1179 1199 0
14 -1179 1180 0
-1180 1200 0
599 -1180 1181 0
-1181 1201 0
-600 -1181 0
-291 1182 0
-1182 1202 0
-292 -1182 1183 0
-1183 1203 0
-293 -1183 1184 0
-1184 1204 0
-294 -1184 1185 0
-1185 1205 0
-295 -1185 1186 0
-1186 1206 0
-296 -1186 1187 0
-1187 1207 0
-297 -1187 1188 0
-1188 1208 0
-298 -1188 1189 0
-1189 1209 0
-299 -1189 1190 0
-1190 1210 0
-300 -1190 1191 0
-1191 1211 0
-301 -1191 1192 0
-1192 1212 0
-302 -1192 1193 0
-1193 1213 0
2 -1193 1194 0
-1194 1214 0
1 -1194 1195 0
-1195 1215 0
5 -1195 1196 0
-1196 1216 0
8 -1196 1197 0
-1197 1217 0
11 -1197 1198 0
-1198 1218 0
14 -1198 1199 0
-1199 1219 0
599 -1199 1200 0
-1200 1220 0
-600 -1200 1201 0
-1201 1221 0
-601 -1201 0
-292 1202 0
-1202 1222 0
-293 -1202 1203 0
-1203 1223 0
-294 -1203 1204 0
-1204 1224 0
-295 -1204 1205 0
-1205 1225 0
-296 -1205 1206 0
-1206 1226 0
-297 -1206 1207 0
-1207 1227 0
-298 -1207 1208 0
-1208 1228 0
-299 -1208 1209 0
-1209 1229 0
-300 -1209 1210 0
-1210 1230 0
-301 -1210 1211 0
-1211 1231 0
-302 -1211 1212 0
-1212 1232 0
2 -1212 1213 0
-1213 1233 0
1 -1213 1214 0
-1214 1234 0
5 -1214 1215 0
-1215 1235 0
8 -1215 1216 0
-1216 1236 0
11 -1216 1217 0
-1217 1237 0
14 -1217 1218 0
-1218 1238 0
599 -1218 1219 0
-1219 1239 0
-600 -1219 1220 0
-1220 1240 0
-601 -1220 1221 0
-1221 1241 0
-602 -1221 0
-293 1222 0
-1222 1242 0
-294 -1222 1223 0
-1223 1243 0
-295 -1223 1224 0
-1224 1244 0
-296 -1224 1225 0
-1225 1245 0
-297 -1225 1226 0
-1226 1246 0
-298 -1226 1227 0
-1227 1247 0
-299 -1227 1228 0
-1228 1248 0
-300 -1228 1229 0
-1229 1249 0
-301 -1229 1230 0
-1230 1250 0
-302 -1230 1231 0
-1231 1251 0
2 -1231 1232 0
-1232 1252 0
1 -1232 1233 0
-1233 1253 0
5 -1233 1234 0
-1234 1254 0
8 -1234 1235 0
-1235 1255 0
11 -1235 1236 0
-1236 1256 0
14 -1236 1237 0
-1237 1257 0
599 -1237 1238 0
-1238 1258 0
-600 -1238 1239 0
-1239 1259 0
-601 -1239 1240 0
-1240 1260 0
-602 -1240 1241 0
-1241 1261 0
-603 -1241 0
-294 1242 0
-1242 1262 0
-295 -1242 1243 0
-1243 1263 0
-296 -1243 1244 0
-1244 1264 0
-297 -1244 1245 0
-1245 1265 0
-298 -1245 1246 0
-1246 1266 0
-299 -1246 1247 0
-1247 1267 0
-300 -1247 1248 0
-1248 1268 0
-301 -1248 1249 0
-1249 1269 0
-302 -1249 1250 0
-1250 1270 0
2 -1250 1251 0
-1251 1271 0
1 -1251 1252 0
-1252 1272 0
5 -1252 1253 0
-1253 1273 0
8 -1253 1254 0
-1254 1274 0
11 -1254 1255 0
-1255 1275 0
14 -1255 1256 0
-1256 1276 0
599 -1256 1257 0
-1257 1277 0
-600 -1257 1258 0
-1258 1278 0
-601 -1258 1259 0
-1259 1279 0
-602 -1259 1260 0
-1260 1280 0
-603 -1260 1261 0
-1261 1281 0
610 -1261 0
-295 1262 0
-1262 1282 0
-296 -1262 1263 0
-1263 1283 0
-297 -1263 1264 0
-1264 1284 0
-298 -1264 1265 0
-1265 1285 0
-299 -1265 1266 0
-1266 1286 0
-300 -1266 1267 0
-1267 1287 0
-301 -1267 1268 0
-1268 1288 0
-302 -1268 1269 0
-1269 1289 0
2 -1269 1270 0
-1270 1290 0
1 -1270 1271 0
-1271 1291 0
5 -1271 1272 0
-1272 1292 0
8 -1272 1273 0
-1273 1293 0
11 -1273 1274 0
-1274 1294 0
14 -1274 1275 0
-1275 1295 0
599 -1275 1276 0
-1276 1296 0
-600 -1276 1277 0
-1277 1297 0
-601 -1277 1278 0
-1278 1298 0
-602 -1278 1279 0
-1279 1299 0
-603 -1279 1280 0
-1280 1300 0
610 -1280 1281 0
-1281 1301 0
-611 -1281 0
-296 1282 0
-1282 1302 0
-297 -1282 1283 0
-1283 1303 0
-298 -1283 1284 0
-1284 1304 0
-299 -1284 1285 0
-1285 1305 0
-300 -1285 1286 0
-1286 1306 0
-301 -1286 1287 0
-1287 1307 0
-302 -1287 1288 0
-1288 1308 0
2 -1288 1289 0
-1289 1309 0
1 -1289 1290 0
-1290 1310 0
5 -1290 1291 0
-1291 1311 0
8 -1291 1292 0
-1292 1312 0
11 -1292 1293 0
-1293 1313 0
14 -1293 1294 0
-1294 1314 0
599 -1294 1295 0
-1295 1315 0
-600 -1295 1296 0
-1296 1316 0
-601 -1296 1297 0
-1297 1317 0
-602 -1297 1298 0
-1298 1318 0
-603 -1298 1299 0
-1299 1319 0
610 -1299 1300 0
-1300 1320 0
-611 -1300 1301 0
-1301 1321 0
-612 -1301 0
-297 1302 0
-1302 1322 0
-298 -1302 1303 0
-1303 1323 0
-299 -1303 1304 0
-1304 1324 0
-300 -1304 1305 0
-1305 1325 0
-301 -1305 1306 0
-1306 1326 0
-302 -1306 1307 0
-1307 1327 0
2 -1307 1308 0
-1308 1328 0
1 -1308 1309 0
-1309 1329 0
5 -1309 1310 0
-1310 1330 0
8 -1310 1311 0
-1311 1331 0
11 -1311 1312 0
-1312 1332 0
14 -1312 1313 0
-1313 1333 0
599 -1313 1314 0
-1314 1334 0
-600 -1314 1315 0
-1315 1335 0
-601 -1315 1316 0
-1316 1336 0
-602 -1316 1317 0
-1317 1337 0
-603 -1317 1318 0
-1318 1338 0
610 -1318 1319 0
-1319 1339 0
-611 -1319 1320 0
-1320 1340 0
-612 -1320 1321 0
-1321 1341 0
-613 -1321 0
-298 1322 0
-1322 1342 0
-299 -1322 1323 0
-1323 1343 0
-300 -1323 1324 0
-1324 1344 0
-301 -1324 1325 0
-1325 1345 0
-302 -1325 1326 0
-1326 1346 0
2 -1326 1327 0
-1327 1347 0
1 -1327 1328 0
-1328 1348 0
5 -1328 1329 0
-1329 1349 0
8 -1329 1330 0
-1330 1350 0
11 -1330 1331 0
-1331 1351 0
14 -1331 1332 0
-1332 1352 0
599 -1332 1333 0
-1333 1353 0
-600 -1333 1334 0
-1334 1354 0
-601 -1334 1335 0
-1335 1355 0
-602 -1335 1336 0
-1336 1356 0
-603 -1336 1337 0
-1337 1357 0
610 -1337 1338 0
-1338 1358 0
-611 -1338 1339 0
-1339 1359 0
-612 -1339 1340 0
-1340 1360 0
-613 -1340 1341 0
-1341 1361 0
617 -1341 0
-299 1342 0
-1342 1362 0
-300 -1342 1343 0
-1343 1363 0
-301 -1343 1344 0
-1344 1364 0
-302 -1344 1345 0
-1345 1365 0
2 -1345 1346 0
-1346 1366 0
1 -1346 1347 0
-1347 1367 0
5 -1347 1348 0
-1348 1368 0
8 -1348 1349 0
-1349 1369 0
11 -1349 1350 0
-1350 1370 0
14 -1350 1351 0
-1351 1371 0
599 -1351 1352 0
-1352 1372 0
-600 -1352 1353 0
-1353 1373 0
-601 -1353 1354 0
-1354 1374 0
-602 -1354 1355 0
-1355 1375 0
-603 -1355 1356 0
-1356 1376 0
610 -1356 1357 0
-1357 1377 0
-611 -1357 1358 0
-1358 1378 0
-612 -1358 1359 0
-1359 1379 0
-613 -1359 1360 0
-1360 1380 0
617 -1360 1361 0
-1361 1381 0
-618 -1361 0
-300 1362 0
-1362 1382 0
-301 -1362 1363 0
-1363 1383 0
-302 -1363 1364 0
-1364 1384 0
2 -1364 1365 0
-1365 1385 0
1 -1365 1366 0
-1366 1386 0
5 -1366 1367 0
-1367 1387 0
8 -1367 1368 0
-1368 1388 0
11 -1368 1369 0
-1369 1389 0
14 -1369 1370 0
-1370 1390 0
599 -1370 1371 0
-1371 1391 0
-600 -1371 1372 0
-1372 1392 0
-601 -1372 1373 0
-1373 1393 0
-602 -1373 1374 0
-1374 1394 0
-603 -1374 1375 0
-1375 1395 0
610 -1375 1376 0
-1376 1396 0
-611 -1376 1377 0
-1377 1397 0
-612 -1377 1378 0
-1378 1398 0
-613 -1378 1379 0
-1379 1399 0
617 -1379 1380 0
-1380 1400 0
-618 -1380 1381 0
-1381 1401 0
-619 -1381 0
-301 1382 0
-1382 1402 0
-302 -1382 1383 0
-1383 1403 0
2 -1383 1384 0
-1384 1404 0
1 -1384 1385 0
-1385 1405 0
5 -1385 1386 0
-1386 1406 0
8 -1386 1387 0
-1387 1407 0
11 -1387 1388 0
-1388 1408 0
14 -1388 1389 0
-1389 1409 0
599 -1389 1390 0
-1390 1410 0
-600 -1390 1391 0
-1391 1411 0
-601 -1391 1392 0
-1392 1412 0
-602 -1392 1393 0
-1393 1413 0
-603 -1393 1394 0
-1394 1414 0
610 -1394 1395 0
-1395 1415 0
-611 -1395 1396 0
-1396 1416 0
-612 -1396 1397 0
-1397 1417 0
-613 -1397 1398 0
-1398 1418 0
617 -1398 1399 0
-1399 1419 0
-618 -1399 1400 0
-1400 1420 0
-619 -1400 1401 0
-1401 1421 0
621 -1401 0
-302 1402 0
-1402 1422 0
2 -1402 1403 0
-1403 1423 0
1 -1403 1404 0
-1404 1424 0
5 -1404 1405 0
-1405 1425 0
8 -1405 1406 0
-1406 1426 0
11 -1406 1407 0
-1407 1427 0
14 -1407 1408 0
-1408 1428 0
599 -1408 1409 0
-1409 1429 0
-600 -1409 1410 0
-1410 1430 0
-601 -1410 1411 0
-1411 1431 0
-602 -1411 1412 0
-1412 1432 0
-603 -1412 1413 0
-1413 1433 0
610 -1413 1414 0
-1414 1434 0
-611 -1414 1415 0
-1415 1435 0
-612 -1415 1416 0
-1416 1436 0
-613 -1416 1417 0
-1417 1437 0
617 -1417 1418 0
-1418 1438 0
-618 -1418 1419 0
-1419 1439 0
-619 -1419 1420 0
-1420 1440 0
621 -1420 1421 0
-1421 1441 0
-622 -1421 0
2 1422 0
-1422 1442 0
1 -1422 1423 0
-1423 1443 0
5 -1423 1424 0
-1424 1444 0
8 -1424 1425 0
-1425 1445 0
11 -1425 1426 0
-1426 1446 0
14 -1426 1427 0
-1427 1447 0
599 -1427 1428 0
-1428 1448 0
-600 -1428 1429 0
-1429 1449 0
-601 -1429 1430 0
-1430 1450 0
-602 -1430 1431 0
-1431 1451 0
-603 -1431 1432 0
-1432 1452 0
610 -1432 1433 0
-1433 1453 0
-611 -1433 1434 0
-1434 1454 0
-612 -1434 1435 0
-1435 1455 0
-613 -1435 1436 0
-1436 1456 0
617 -1436 1437 0
-1437 1457 0
-618 -1437 1438 0
-1438 1458 0
-619 -1438 1439 0
-1439 1459 0
621 -1439 1440 0
-1440 1460 0
-622 -1440 1441 0
-1441 1461 0
623 -1441 0
1 1442 0
-1442 1462 0
5 -1442 1443 0
-1443 1463 0
8 -1443 1444 0
-1444 1464 0
11 -1444 1445 0
-1445 1465 0
14 -1445 1446 0
-1446 1466 0
599 -1446 1447 0
-1447 1467 0
-600 -1447 1448 0
-1448 1468 0
-601 -1448 1449 0
-1449 1469 0
-602 -1449 1450 0
-1450 1470 0
-603 -1450 1451 0
-1451 1471 0
610 -1451 1452 0
-1452 1472 0
-611 -1452 1453 0
-1453 1473 0
-612 -1453 1454 0
-1454 1474 0
-613 -1454 1455 0
-1455 1475 0
617 -1455 1456 0
-1456 1476 0
-618 -1456 1457 0
-1457 1477 0
-619 -1457 1458 0
-1458 1478 0
621 -1458 1459 0
-1459 1479 0
-622 -1459 1460 0
-1460 1480 0
623 -1460 1461 0
-1461 1481 0
624 -1461 0
5 1462 0
-1462 1482 0
8 -1462 1463 0
-1463 1483 0
11 -1463 1464 0
-1464 1484 0
14 -1464 1465 0
-1465 1485 0
599 -1465 1466 0
-1466 1486 0
-600 -1466 1467 0
-1467 1487 0
-601 -1467 1468 0
-1468 1488 0
-602 -1468 1469 0
-1469 1489 0
-603 -1469 1470 0
-1470 1490 0
610 -1470 1471 0
-1471 1491 0
-611 -1471 1472 0
-1472 1492 0
-612 -1472 1473 0
-1473 1493 0
-613 -1473 1474 0
-1474 1494 0
617 -1474 1475 0
-1475 1495 0
-618 -1475 1476 0
-1476 1496 0
-619 -1476 1477 0
-1477 1497 0
621 -1477 1478 0
-1478 1498 0
-622 -1478 1479 0
-1479 1499 0
623 -1479 1480 0
-1480 1500 0
624 -1480 1481 0
-1481 1501 0
-625 -1481 0
8 1482 0
-1482 1502 0
11 -1482 1483 0
-1483 1503 0
14 -1483 1484 0
-1484 1504 0
599 -1484 1485 0
-1485 1505 0
-600 -1485 1486 0
-1486 1506 0
-601 -1486 1487 0
-1487 1507 0
-602 -1487 1488 0
-1488 1508 0
-603 -1488 1489 0
-1489 1509 0
610 -1489 1490 0
-1490 1510 0
-611 -1490 1491 0
-1491 1511 0
-612 -1491 1492 0
-1492 1512 0
-613 -1492 1493 0
-1493 1513 0
617 -1493 1494 0
-1494 1514 0
-618 -1494 1495 0
-1495 1515 0
-619 -1495 1496 0
-1496 1516 0
621 -1496 1497 0
-1497 1517 0
-622 -1497 1498 0
-1498 1518 0
623 -1498 1499 0
-1499 1519 0
624 -1499 1500 0
-1500 1520 0
-625 -1500 1501 0
-1501 1521 0
-626 -1501 0
11 1502 0
-1502 1522 0
14 -1502 1503 0
-1503 1523 0
599 -1503 1504 0
-1504 1524 0
-600 -1504 1505 0
-1505 1525 0
-601 -1505 1506 0
-1506 1526 0
-602 -1506 1507 0
-1507 1527 0
-603 -1507 1508 0
-1508 1528 0
610 -1508 1509 0
-1509 1529 0
-611 -1509 1510 0
-1510 1530 0
-612 -1510 1511 0
-1511 1531 0
-613 -1511 1512 0
-1512 1532 0
617 -1512 1513 0
-1513 1533 0
-618 -1513 1514 0
-1514 1534 0
-619 -1514 1515 0
-1515 1535 0
621 -1515 1516 0
-1516 1536 0
-622 -1516 1517 0
-1517 1537 0
623 -1517 1518 0
-1518 1538 0
624 -1518 1519 0
-1519 1539 0
-625 -1519 1520 0
-1520 1540 0
-626 -1520 1521 0
-1521 1541 0
-627 -1521 0
14 1522 0
-1522 1542 0
599 -1522 1523 0
-1523 1543 0
-600 -1523 1524 0
-1524 1544 0
-601 -1524 1525 0
-1525 1545 0
-602 -1525 1526 0
-1526 1546 0
-603 -1526 1527 0
-1527 1547 0
610 -1527 1528 0
-1528 1548 0
-611 -1528 1529 0
-1529 1549 0
-612 -1529 1530 0
-1530 1550 0
-613 -1530 1531 0
-1531 1551 0
617 -1531 1532 0
-1532 1552 0
-618 -1532 1533 0
-1533 1553 0
-619 -1533 1534 0
-1534 1554 0
621 -1534 1535 0
-1535 1555 0
-622 -1535 1536 0
-1536 1556 0
623 -1536 1537 0
-1537 1557 0
624 -1537 1538 0
-1538 1558 0
-625 -1538 1539 0
-1539 1559 0
-626 -1539 1540 0
-1540 1560 0
-627 -1540 1541 0
-1541 1561 0
631 -1541 0
599 1542 0
-1542 1562 0
-600 -1542 1543 0
-1543 1563 0
-601 -1543 1544 0
-1544 1564 0
-602 -1544 1545 0
-1545 1565 0
-603 -1545 1546 0
-1546 1566 0
610 -1546 1547 0
-1547 1567 0
-611 -1547 1548 0
-1548 1568 0
-612 -1548 1549 0
-1549 1569 0
-613 -1549 1550 0
-1550 1570 0
617 -1550 1551 0
-1551 1571 0
-618 -1551 1552 0
-1552 1572 0
-619 -1552 1553 0
-1553 1573 0
621 -1553 1554 0
-1554 1574 0
-622 -1554 1555 0
-1555 1575 0
623 -1555 1556 0
-1556 1576 0
624 -1556 1557 0
-1557 1577 0
-625 -1557 1558 0
-1558 1578 0
-626 -1558 1559 0
-1559 1579 0
-627 -1559 1560 0
-1560 1580 0
631 -1560 1561 0
-1561 1581 0
-632 -1561 0
-600 1562 0
-1562 1582 0
-601 -1562 1563 0
-1563 1583 0
-602 -1563 1564 0
-1564 1584 0
-603 -1564 1565 0
-1565 1585 0
610 -1565 1566 0
-1566 1586 0
-611 -1566 1567 0
-1567 1587 0
-612 -1567 1568 0
-1568 1588 0
-613 -1568 1569 0
-1569 1589 0
617 -1569 1570 0
-1570 1590 0
-618 -1570 1571 0
-1571 1591 0
-619 -1571 1572 0
-1572 1592 0
621 -1572 1573 0
-1573 1593 0
-622 -1573 1574 0
-1574 1594 0
623 -1574 1575 0
-1575 1595 0
624 -1575 1576 0
-1576 1596 0
-625 -1576 1577 0
-1577 1597 0
-626 -1577 1578 0
-1578 1598 0
-627 -1578 1579 0
-1579 1599 0
631 -1579 1580 0
-1580 1600 0
-632 -1580 1581 0
-1581 1601 0
-633 -1581 0
-601 1582 0
-1582 1602 0
-602 -1582 1583 0
-1583 1603 0
-603 -1583 1584 0
-1584 1604 0
610 -1584 1585 0
-1585 1605 0
-611 -1585 1586 0
-1586 1606 0
-612 -1586 1587 0
-1587 1607 0
-613 -1587 1588 0
-1588 1608 0
617 -1588 1589 0
-1589 1609 0
-618 -1589 1590 0
-1590 1610 0
-619 -1590 1591 0
-1591 1611 0
621 -1591 1592 0
-1592 1612 0
-622 -1592 1593 0
-1593 1613 0
623 -1593 1594 0
-1594 1614 0
624 -1594 1595 0
-1595 1615 0
-625 -1595 1596 0
-1596 1616 0
-626 -1596 1597 0
-1597 1617 0
-627 -1597 1598 0
-1598 1618 0
631 -1598 1599 0
-1599 1619 0
-632 -1599 1600 0
-1600 1620 0
-633 -1600 1601 0
-1601 1621 0
635 -1601 0
-602 1602 0
-1602 1622 0
-603 -1602 1603 0
-1603 1623 0
610 -1603 1604 0
-1604 1624 0
-611 -1604 1605 0
-1605 1625 0
-612 -1605 1606 0
-1606 1626 0
-613 -1606 1607 0
-1607 1627 0
617 -1607 1608 0
-1608 1628 0
-618 -1608 1609 0
-1609 1629 0
-619 -1609 1610 0
-1610 1630 0
621 -1610 1611 0
-1611 1631 0
-622 -1611 1612 0
-1612 1632 0
623 -1612 1613 0
-1613 1633 0
624 -1613 1614 0
-1614 1634 0
-625 -1614 1615 0
-1615 1635 0
-626 -1615 1616 0
-1616 1636 0
-627 -1616 1617 0
-1617 1637 0
631 -1617 1618 0
-1618 1638 0
-632 -1618 1619 0
-1619 1639 0
-633 -1619 1620 0
-1620 1640 0
635 -1620 1621 0
-1621 1641 0
-636 -1621 0
-603 1622 0
-1622 1642 0
610 -1622 1623 0
-1623 1643 0
-611 -1623 1624 0
-1624 1644 0
-612 -1624 1625 0
-1625 1645 0
-613 -1625 1626 0
-1626 1646 0
617 -1626 1627 0
-1627 1647 0
-618 -1627 1628 0
-1628 1648 0
-619 -1628 1629 0
-1629 1649 0
621 -1629 1630 0
-1630 1650 0
-622 -1630 1631 0
-1631 1651 0
623 -1631 1632 0
-1632 1652 0
624 -1632 1633 0
-1633 1653 0
-625 -1633 1634 0
-1634 1654 0
-626 -1634 1635 0
-1635 1655 0
-627 -1635 1636 0
-1636 1656 0
631 -1636 1637 0
-1637 1657 0
-632 -1637 1638 0
-1638 1658 0
-633 -1638 1639 0
-1639 1659 0
635 -1639 1640 0
-1640 1660 0
-636 -1640 1641 0
-1641 1661 0
637 -1641 0
610 1642 0
-1642 1662 0
-611 -1642 1643 0
-1643 1663 0
-612 -1643 1644 0
-1644 1664 0
-613 -1644 1645 0
-1645 1665 0
617 -1645 1646 0
-1646 1666 0
-618 -1646 1647 0
-1647 1667 0
-619 -1647 1648 0
-1648 1668 0
621 -1648 1649 0
-1649 1669 0
-622 -1649 1650 0
-1650 1670 0
623 -1650 1651 0
-1651 1671 0
624 -1651 1652 0
-1652 1672 0
-625 -1652 1653 0
-1653 1673 0
-626 -1653 1654 0
-1654 1674 0
-627 -1654 1655 0
-1655 1675 0
631 -1655 1656 0
-1656 1676 0
-632 -1656 1657 0
-1657 1677 0
-633 -1657 1658 0
-1658 1678 0
635 -1658 1659 0
-1659 1679 0
-636 -1659 1660 0
-1660 1680 0
637 -1660 1661 0
-1661 1681 0
638 -1661 0
-611 1662 0
-1662 1682 0
-612 -1662 1663 0
-1663 1683 0
-613 -1663 1664 0
-1664 1684 0
617 -1664 1665 0
-1665 1685 0
-618 -1665 1666 0
-1666 1686 0
-619 -1666 1667 0
-1667 1687 0
621 -1667 1668 0
-1668 1688 0
-622 -1668 1669 0
-1669 1689 0
623 -1669 1670 0
-1670 1690 0
624 -1670 1671 0
-1671 1691 0
-625 -1671 1672 0
-1672 1692 0
-626 -1672 1673 0
-1673 1693 0
-627 -1673 1674 0
-1674 1694 0
631 -1674 1675 0
-1675 1695 0
-632 -1675 1676 0
-1676 1696 0
-633 -1676 1677 0
-1677 1697 0
635 -1677 1678 0
-1678 1698 0
-636 -1678 1679 0
-1679 1699 0
637 -1679 1680 0
-1680 1700 0
638 -1680 1681 0
-1681 1701 0
-639 -1681 0
-612 1682 0
-1682 1702 0
-613 -1682 1683 0
-1683 1703 0
617 -1683 1684 0
-1684 1704 0
-618 -1684 1685 0
-1685 1705 0
-619 -1685 1686 0
-1686 1706 0
621 -1686 1687 0
-1687 1707 0
-622 -1687 1688 0
-1688 1708 0
623 -1688 1689 0
-1689 1709 0
624 -1689 1690 0
-1690 1710 0
-625 -1690 1691 0
-1691 1711 0
-626 -1691 1692 0
-1692 1712 0
-627 -1692 1693 0
-1693 1713 0
631 -1693 1694 0
-1694 1714 0
-632 -1694 1695 0
-1695 1715 0
-633 -1695 1696 0
-1696 1716 0
635 -1696 1697 0
-1697 1717 0
-636 -1697 1698 0
-1698 1718 0
637 -1698 1699 0
-1699 1719 0
638 -1699 1700 0
-1700 1720 0
-639 -1700 1701 0
-1701 1721 0
-640 -1701 0
-613 1702 0
-1702 1722 0
617 -1702 1703 0
-1703 1723 0
-618 -1703 1704 0
-1704 1724 0
-619 -1704 1705 0
-1705 1725 0
621 -1705 1706 0
-1706 1726 0
-622 -1706 1707 0
-1707 1727 0
623 -1707 1708 0
-1708 1728 0
624 -1708 1709 0
-1709 1729 0
-625 -1709 1710 0
-1710 1730 0
-626 -1710 1711 0
-1711 1731 0
-627 -1711 1712 0
-1712 1732 0
631 -1712 1713 0
-1713 1733 0
-632 -1713 1714 0
-1714 1734 0
-633 -1714 1715 0
-1715 1735 0
635 -1715 1716 0
-1716 1736 0
-636 -1716 1717 0
-1717 1737 0
637 -1717 1718 0
-1718 1738 0
638 -1718 1719 0
-1719 1739 0
-639 -1719 1720 0
-1720 1740 0
-640 -1720 1721 0
-1721 1741 0
642 -1721 0
617 1722 0
-1722 1742 0
-618 -1722 1723 0
-1723 1743 0
-619 -1723 1724 0
-1724 1744 0
621 -1724 1725 0
-1725 1745 0
-622 -1725 1726 0
-1726 1746 0
623 -1726 1727 0
-1727 1747 0
624 -1727 1728 0
-1728 1748 0
-625 -1728 1729 0
-1729 1749 0
-626 -1729 1730 0
-1730 1750 0
-627 -1730 1731 0
-1731 1751 0
631 -1731 1732 0
-1732 1752 0
-632 -1732 1733 0
-1733 1753 0
-633 -1733 1734 0
-1734 1754 0
635 -1734 1735 0
-1735 1755 0
-636 -1735 1736 0
-1736 1756 0
637 -1736 1737 0
-1737 1757 0
638 -1737 1738 0
-1738 1758 0
-639 -1738 1739 0
-1739 1759 0
-640 -1739 1740 0
-1740 1760 0
642 -1740 1741 0
-1741 1761 0
-643 -1741 0
-618 1742 0
-1742 1762 0
-619 -1742 1743 0
-1743 1763 0
621 -1743 1744 0
-1744 1764 0
-622 -1744 1745 0
-1745 1765 0
623 -1745 1746 0
-1746 1766 0
624 -1746 1747 0
-1747 1767 0
-625 -1747 1748 0
-1748 1768 0
-626 -1748 1749 0
-1749 1769 0
-627 -1749 1750 0
-1750 1770 0
631 -1750 1751 0
-1751 1771 0
-632 -1751 1752 0
-1752 1772 0
-633 -1752 1753 0
-1753 1773 0
635 -1753 1754 0
-1754 1774 0
-636 -1754 1755 0
-1755 1775 0
637 -1755 1756 0
-1756 1776 0
638 -1756 1757 0
-1757 1777 0
-639 -1757 1758 0
-1758 1778 0
-640 -1758 1759 0
-1759 1779 0
642 -1759 1760 0
-1760 1780 0
-643 -1760 1761 0
-1761 1781 0
644 -1761 0
-619 1762 0
-1762 1782 0
621 -1762 1763 0
-1763 1783 0
-622 -1763 1764 0
-1764 1784 0
623 -1764 1765 0
-1765 1785 0
624 -1765 1766 0
-1766 1786 0
-625 -1766 1767 0
-1767 1787 0
-626 -1767 1768 0
-1768 1788 0
-627 -1768 1769 0
-1769 1789 0
631 -1769 1770 0
-1770 1790 0
-632 -1770 1771 0
-1771 1791 0
-633 -1771 1772 0
-1772 1792 0
635 -1772 1773 0
-1773 1793 0
-636 -1773 1774 0
-1774 1794 0
637 -1774 1775 0
-1775 1795 0
638 -1775 1776 0
-1776 1796 0
-639 -1776 1777 0
-1777 1797 0
-640 -1777 1778 0
-1778 1798 0
642 -1778 1779 0
-1779 1799 0
-643 -1779 1780 0
-1780 1800 0
644 -1780 1781 0
-1781 1801 0
645 -1781 0
621 1782 0
-1782 1802 0
-622 -1782 1783 0
-1783 1803 0
623 -1783 1784 0
-1784 1804 0
624 -1784 1785 0
-1785 1805 0
-625 -1785 1786 0
-1786 1806 0
-626 -1786 1787 0
-1787 1807 0
-627 -1787 1788 0
-1788 1808 0
631 -1788 1789 0
-1789 1809 0
-632 -1789 1790 0
-1790 1810 0
-633 -1790 1791 0
-1791 1811 0
635 -1791 1792 0
-1792 1812 0
-636 -1792 1793 0
-1793 1813 0
637 -1793 1794 0
-1794 1814 0
638 -1794 1795 0
-1795 1815 0
-639 -1795 1796 0
-1796 1816 0
-640 -1796 1797 0
-1797 1817 0
642 -1797 1798 0
-1798 1818 0
-643 -1798 1799 0
-1799 1819 0
644 -1799 1800 0
-1800 1820 0
645 -1800 1801 0
-1801 1821 0
-646 -1801 0
-622 1802 0
-1802 1822 0
623 -1802 1803 0
-1803 1823 0
624 -1803 1804 0
-1804 1824 0
-625 -1804 1805 0
-1805 1825 0
-626 -1805 1806 0
-1806 1826 0
-627 -1806 1807 0
-1807 1827 0
631 -1807 1808 0
-1808 1828 0
-632 -1808 1809 0
-1809 1829 0
-633 -1809 1810 0
-1810 1830 0
635 -1810 1811 0
-1811 1831 0
-636 -1811 1812 0
-1812 1832 0
637 -1812 1813 0
-1813 1833 0
638 -1813 1814 0
-1814 1834 0
-639 -1814 1815 0
-1815 1835 0
-640 -1815 1816 0
-1816 1836 0
642 -1816 1817 0
-1817 1837 0
-643 -1817 1818 0
-1818 1838 0
644 -1818 1819 0
-1819 1839 0
645 -1819 1820 0
-1820 1840 0
-646 -1820 1821 0
-1821 1841 0
647 -1821 0
623 1822 0
624 -1822 1823 0
-625 -1823 1824 0
-626 -1824 1825 0
-627 -1825 1826 0
631 -1826 1827 0
-632 -1827 1828 0
-633 -1828 1829 0
635 -1829 1830 0
-636 -1830 1831 0
637 -1831 1832 0
638 -1832 1833 0
-639 -1833 1834 0
-640 -1834 1835 0
642 -1835 1836 0
-643 -1836 1837 0
644 -1837 1838 0
645 -1838 1839 0
-646 -1839 1840 0
647 -1840 1841 0
648 -1841 0
-288 1842 0
-1842 1843 0
-289 -1842 1844 0
-1844 1845 0
-290 -1844 1846 0
-1846 1847 0
-291 -1846 1848 0
-1848 1849 0
-292 -1848 1850 0
-1850 1851 0
-303 -1850 1852 0
-1852 1853 0
-304 -1852 1854 0
-1854 1855 0
-305 -1854 1856 0
-1856 1857 0
-306 -1856 1858 0
-1858 1859 0
-307 -1858 1860 0
-1860 1861 0
-308 -1860 1862 0
-1862 1863 0
-309 -1862 1864 0
-1864 1865 0
-310 -1864 1866 0
-1866 1867 0
-311 -1866 1868 0
-1868 1869 0
-312 -1868 1870 0
-1870 1871 0
2 -1870 1872 0
-1872 1873 0
3 -1872 1874 0
-1874 1875 0
6 -1874 1876 0
-1876 1877 0
9 -1876 1878 0
-1878 1879 0
12 -1878 1880 0
-1880 1881 0
15 -1880 0
-289 1843 0
-1843 1882 0
-290 -1843 1845 0
-1845 1883 0
-291 -1845 1847 0
-1847 1884 0
-292 -1847 1849 0
-1849 1885 0
-303 -1849 1851 0
-1851 1886 0
-304 -1851 1853 0
-1853 1887 0
-305 -1853 1855 0
-1855 1888 0
-306 -1855 1857 0
-1857 1889 0
-307 -1857 1859 0
-1859 1890 0
-308 -1859 1861 0
-1861 1891 0
-309 -1861 1863 0
-1863 1892 0
-310 -1863 1865 0
-1865 1893 0
-311 -1865 1867 0
-1867 1894 0
-312 -1867 1869 0
-1869 1895 0
2 -1869 1871 0
-1871 1896 0
3 -1871 1873 0
-1873 1897 0
6 -1873 1875 0
-1875 1898 0
9 -1875 1877 0
-1877 1899 0
12 -1877 1879 0
-1879 1900 0
15 -1879 1881 0
-1881 1901 0
599 -1881 0
-290 1882 0
-1882 1902 0
-291 -1882 1883 0
-1883 1903 0
-292 -1883 1884 0
-1884 1904 0
-303 -1884 1885 0
-1885 1905 0
-304 -1885 1886 0
-1886 1906 0
-305 -1886 1887 0
-1887 1907 0
-306 -1887 1888 0
-1888 1908 0
-307 -1888 1889 0
-1889 1909 0
-308 -1889 1890 0
-1890 1910 0
-309 -1890 1891 0
-1891 1911 0
-310 -1891 1892 0
-1892 1912 0
-311 -1892 1893 0
-1893 1913 0
-312 -1893 1894 0
-1894 1914 0
2 -1894 1895 0
-1895 1915 0
3 -1895 1896 0
-1896 1916 0
6 -1896 1897 0
-1897 1917 0
9 -1897 1898 0
-1898 1918 0
12 -1898 1899 0
-1899 1919 0
15 -1899 1900 0
-1900 1920 0
599 -1900 1901 0
-1901 1921 0
-600 -1901 0
-291 1902 0
-1902 1922 0
-292 -1902 1903 0
-1903 1923 0
-303 -1903 1904 0
-1904 1924 0
-304 -1904 1905 0
-1905 1925 0
-305 -1905 1906 0
-1906 1926 0
-306 -1906 1907 0
-1907 1927 0
-307 -1907 1908 0
-1908 1928 0
-308 -1908 1909 0
-1909 1929 0
-309 -1909 1910 0
-1910 1930 0
-310 -1910 1911 0
-1911 1931 0
-311 -1911 1912 0
-1912 1932 0
-312 -1912 1913 0
-1913 1933 0
2 -1913 1914 0
-1914 1934 0
3 -1914 1915 0
-1915 1935 0
6 -1915 1916 0
-1916 1936 0
9 -1916 1917 0
-1917 1937 0
12 -1917 1918 0
-1918 1938 0
15 -1918 1919 0
-1919 1939 0
599 -1919 1920 0
-1920 1940 0
-600 -1920 1921 0
-1921 1941 0
-601 -1921 0
-292 1922 0
-1922 1942 0
-303 -1922 1923 0
-1923 1943 0
-304 -1923 1924 0
-1924 1944 0
-305 -1924 1925 0
-1925 1945 0
-306 -1925 1926 0
-1926 1946 0
-307 -1926 1927 0
-1927 1947 0
-308 -1927 1928 0
-1928 1948 0
-309 -1928 1929 0
-1929 1949 0
-310 -1929 1930 0
-1930 1950 0
-311 -1930 1931 0
-1931 1951 0
-312 -1931 1932 0
-1932 1952 0
2 -1932 1933 0
-1933 1953 0
3 -1933 1934 0
-1934 1954 0
6 -1934 1935 0
-1935 1955 0
9 -1935 1936 0
-1936 1956 0
12 -1936 1937 0
-1937 1957 0
15 -1937 1938 0
-1938 1958 0
599 -1938 1939 0
-1939 1959 0
-600 -1939 1940 0
-1940 1960 0
-601 -1940 1941 0
-1941 1961 0
-602 -1941 0
-303 1942 0
-1942 1962 0
-304 -1942 1943 0
-1943 1963 0
-305 -1943 1944 0
-1944 1964 0
-306 -1944 1945 0
-1945 1965 0
-307 -1945 1946 0
-1946 1966 0
-308 -1946 1947 0
-1947 1967 0
-309 -1947 1948 0
-1948 1968 0
-310 -1948 1949 0
-1949 1969 0
-311 -1949 1950 0
-1950 1970 0
-312 -1950 1951 0
-1951 1971 0
2 -1951 1952 0
-1952 1972 0
3 -1952 1953 0
-1953 1973 0
6 -1953 1954 0
-1954 1974 0
9 -1954 1955 0
-1955 1975 0
12 -1955 1956 0
-1956 1976 0
15 -1956 1957 0
-1957 1977 0
599 -1957 1958 0
-1958 1978 0
-600 -1958 1959 0
-1959 1979 0
-601 -1959 1960 0
-1960 1980 0
-602 -1960 1961 0
-1961 1981 0
-603 -1961 0
-304 1962 0
-1962 1982 0
-305 -1962 1963 0
-1963 1983 0
-306 -1963 1964 0
-1964 1984 0
-307 -1964 1965 0
-1965 1985 0
-308 -1965 1966 0
-1966 1986 0
-309 -1966 1967 0
-1967 1987 0
-310 -1967 1968 0
-1968 1988 0
-311 -1968 1969 0
-1969 1989 0
-312 -1969 1970 0
-1970 1990 0
2 -1970 1971 0
-1971 1991 0
3 -1971 1972 0
-1972 1992 0
6 -1972 1973 0
-1973 1993 0
9 -1973 1974 0
-1974 1994 0
12 -1974 1975 0
-1975 1995 0
15 -1975 1976 0
-1976 1996 0
599 -1976 1977 0
-1977 1997 0
-600 -1977 1978 0
-1978 1998 0
-601 -1978 1979 0
-1979 1999 0
-602 -1979 1980 0
-1980 2000 0
-603 -1980 1981 0
-1981 2001 0
610 -1981 0
-305 1982 0
-1982 2002 0
-306 -1982 1983 0
-1983 2003 0
-307 -1983 1984 0
-1984 2004 0
-308 -1984 1985 0
-1985 2005 0
-309 -1985 1986 0
-1986 2006 0
-310 -1986 1987 0
-1987 2007 0
-311 -1987 1988 0
-1988 2008 0
-312 -1988 1989 0
-1989 2009 0
2 -1989 1990 0
-1990 2010 0
3 -1990 1991 0
-1991 2011 0
6 -1991 1992 0
-1992 2012 0
9 -1992 1993 0
-1993 2013 0
12 -1993 1994 0
-1994 2014 0
15 -1994 1995 0
-1995 2015 0
599 -1995 1996 0
-1996 2016 0
-600 -1996 1997 0
-1997 2017 0
-601 -1997 1998 0
-1998 2018 0
-602 -1998 1999 0
-1999 2019 0
-603 -1999 2000 0
-2000 2020 0
610 -2000 2001 0
-2001 2021 0
-611 -2001 0
-306 2002 0
-2002 2022 0
-307 -2002 2003 0
-2003 2023 0
-308 -2003 2004 0
-2004 2024 0
-309 -2004 2005 0
-2005 2025 0
-310 -2005 2006 0
-2006 2026 0
-311 -2006 2007 0
-2007 2027 0
-312 -2007 2008 0
-2008 2028 0
2 -2008 2009 0
-2009 2029 0
3 -2009 2010 0
-2010 2030 0
6 -2010 2011 0
-2011 2031 0
9 -2011 2012 0
-2012 2032 0
12 -2012 2013 0
-2013 2033 0
15 -2013 2014 0
-2014 2034 0
599 -2014 2015 0
-2015 2035 0
-600 -2015 2016 0
-2016 2036 0
-601 -2016 2017 0
-2017 2037 0
-602 -2017 2018 0
-2018 2038 0
-603 -2018 2019 0
-2019 2039 0
610 -2019 2020 0
-2020 2040 0
-611 -2020 2021 0
-2021 2041 0
-612 -2021 0
-307 2022 0
-2022 2042 0
-308 -2022 2023 0
-2023 2043 0
-309 -2023 2024 0
-2024 2044 0
-310 -2024 2025 0
-2025 2045 0
-311 -2025 2026 0
-2026 2046 0
-312 -2026 2027 0
-2027 2047 0
2 -2027 2028 0
-2028 2048 0
3 -2028 2029 0
-2029 2049 0
6 -2029 2030 0
-2030 2050 0
9 -2030 2031 0
-2031 2051 0
12 -2031 2032 0
-2032 2052 0
15 -2032 2033 0
-2033 2053 0
599 -2033 2034 0
-2034 2054 0
-600 -2034 2035 0
-2035 2055 0
-601 -2035 2036 0
-2036 2056 0
-602 -2036 2037 0
-2037 2057 0
-603 -2037 2038 0
-2038 2058 0
610 -2038 2039 0
-2039 2059 0
-611 -2039 2040 0
-2040 2060 0
-612 -2040 2041 0
-2041 2061 0
-613 -2041 0
-308 2042 0
-2042 2062 0
-309 -2042 2043 0
-2043 2063 0
-310 -2043 2044 0
-2044 2064 0
-311 -2044 2045 0
-2045 2065 0
-312 -2045 2046 0
-2046 2066 0
2 -2046 2047 0
-2047 2067 0
3 -2047 2048 0
-2048 2068 0
6 -2048 2049 0
-2049 2069 0
9 -2049 2050 0
-2050 2070 0
12 -2050 2051 0
-2051 2071 0
15 -2051 2052 0
-2052 2072 0
599 -2052 2053 0
-2053 2073 0
-600 -2053 2054 0
-2054 2074 0
-601 -2054 2055 0
-2055 2075 0
-602 -2055 2056 0
-2056 2076 0
-603 -2056 2057 0
-2057 2077 0
610 -2057 2058 0
-2058 2078 0
-611 -2058 2059 0
-2059 2079 0
-612 -2059 2060 0
-2060 2080 0
-613 -2060 2061 0
-2061 2081 0
617 -2061 0
-309 2062 0
-2062 2082 0
-310 -2062 2063 0
-2063 2083 0
-311 -2063 2064 0
-2064 2084 0
-312 -2064 2065 0
-2065 2085 0
2 -2065 2066 0
-2066 2086 0
3 -2066 2067 0
-2067 2087 0
6 -2067 2068 0
-2068 2088 0
9 -2068 2069 0
-2069 2089 0
12 -2069 2070 0
-2070 2090 0
15 -2070 2071 0
-2071 2091 0
599 -2071 2072 0
-2072 2092 0
-600 -2072 2073 0
-2073 2093 0
-601 -2073 2074 0
-2074 2094 0
-602 -2074 2075 0
-2075 2095 0
-603 -2075 2076 0
-2076 2096 0
610 -2076 2077 0
-2077 2097 0
-611 -2077 2078 0
-2078 2098 0
-612 -2078 2079 0
-2079 2099 0
-613 -2079 2080 0
-2080 2100 0
617 -2080 2081 0
-2081 2101 0
-618 -2081 0
-310 2082 0
-2082 2102 0
-311 -2082 2083 0
-2083 2103 0
-312 -2083 2084 0
-2084 2104 0
2 -2084 2085 0
-2085 2105 0
3 -2085 2086 0
-2086 2106 0
6 -2086 2087 0
-2087 2107 0
9 -2087 2088 0
-2088 2108 0
12 -2088 2089 0
-2089 2109 0
15 -2089 2090 0
-2090 2110 0
599 -2090 2091 0
-2091 2111 0
-600 -2091 2092 0
-2092 2112 0
-601 -2092 2093 0
-2093 2113 0
-602 -2093 2094 0
-2094 2114 0
-603 -2094 2095 0
-2095 2115 0
610 -2095 2096 0
-2096 2116 0
-611 -2096 2097 0
-2097 2117 0
-612 -2097 2098 0
-2098 2118 0
-613 -2098 2099 0
-2099 2119 0
617 -2099 2100 0
-2100 2120 0
-618 -2100 2101 0
-2101 2121 0
-619 -2101 0
-311 2102 0
-2102 2122 0
-312 -2102 2103 0
-2103 2123 0
2 -2103 2104 0
-2104 2124 0
3 -2104 2105 0
-2105 2125 0
6 -2105 2106 0
-2106 2126 0
9 -2106 2107 0
-2107 2127 0
12 -2107 2108 0
-2108 2128 0
15 -2108 2109 0
-2109 2129 0
599 -2109 2110 0
-2110 2130 0
-600 -2110 2111 0
-2111 2131 0
-601 -2111 2112 0
-2112 2132 0
-602 -2112 2113 0
-2113 2133 0
-603 -2113 2114 0
-2114 2134 0
610 -2114 2115 0
-2115 2135 0
-611 -2115 2116 0
-2116 2136 0
-612 -2116 2117 0
-2117 2137 0
-613 -2117 2118 0
-2118 2138 0
617 -2118 2119 0
-2119 2139 0
-618 -2119 2120 0
-2120 2140 0
-619 -2120 2121 0
-2121 2141 0
621 -2121 0
-312 2122 0
-2122 2142 0
2 -2122 2123 0
-2123 2143 0
3 -2123 2124 0
-2124 2144 0
6 -2124 2125 0
-2125 2145 0
9 -2125 2126 0
-2126 2146 0
12 -2126 2127 0
-2127 2147 0
15 -2127 2128 0
-2128 2148 0
599 -2128 2129 0
-2129 2149 0
-600 -2129 2130 0
-2130 2150 0
-601 -2130 2131 0
-2131 2151 0
-602 -2131 2132 0
-2132 2152 0
-603 -2132 2133 0
-2133 2153 0
610 -2133 2134 0
-2134 2154 0
-611 -2134 2135 0
-2135 2155 0
-612 -2135 2136 0
-2136 2156 0
-613 -2136 2137 0
-2137 2157 0
617 -2137 2138 0
-2138 2158 0
-618 -2138 2139 0
-2139 2159 0
-619 -2139 2140 0
-2140 2160 0
621 -2140 2141 0
-2141 2161 0
-622 -2141 0
2 2142 0
-2142 2162 0
3 -2142 2143 0
-2143 2163 0
6 -2143 2144 0
-2144 2164 0
9 -2144 2145 0
-2145 2165 0
12 -2145 2146 0
-2146 2166 0
15 -2146 2147 0
-2147 2167 0
599 -2147 2148 0
-2148 2168 0
-600 -2148 2149 0
-2149 2169 0
-601 -2149 2150 0
-2150 2170 0
-602 -2150 2151 0
-2151 2171 0
-603 -2151 2152 0
-2152 2172 0
610 -2152 2153 0
-2153 2173 0
-611 -2153 2154 0
-2154 2174 0
-612 -2154 2155 0
-2155 2175 0
-613 -2155 2156 0
-2156 2176 0
617 -2156 2157 0
-2157 2177 0
-618 -2157 2158 0
-2158 2178 0
-619 -2158 2159 0
-2159 2179 0
621 -2159 2160 0
-2160 2180 0
-622 -2160 2161 0
-2161 2181 0
623 -2161 0
3 2162 0
-2162 2182 0
6 -2162 2163 0
-2163 2183 0
9 -2163 2164 0
-2164 2184 0
12 -2164 2165 0
-2165 2185 0
15 -2165 2166 0
-2166 2186 0
599 -2166 2167 0
-2167 2187 0
-600 -2167 2168 0
-2168 2188 0
-601 -2168 2169 0
-2169 2189 0
-602 -2169 2170 0
-2170 2190 0
-603 -2170 2171 0
-2171 2191 0
610 -2171 2172 0
-2172 2192 0
-611 -2172 2173 0
-2173 2193 0
-612 -2173 2174 0
-2174 2194 0
-613 -2174 2175 0
-2175 2195 0
617 -2175 2176 0
-2176 2196 0
-618 -2176 2177 0
-2177 2197 0
-619 -2177 2178 0
-2178 2198 0
621 -2178 2179 0
-2179 2199 0
-622 -2179 2180 0
-2180 2200 0
623 -2180 2181 0
-2181 2201 0
649 -2181 0
6 2182 0
-2182 2202 0
9 -2182 2183 0
-2183 2203 0
12 -2183 2184 0
-2184 2204 0
15 -2184 2185 0
-2185 2205 0
599 -2185 2186 0
-2186 2206 0
-600 -2186 2187 0
-2187 2207 0
-601 -2187 2188 0
-2188 2208 0
-602 -2188 2189 0
-2189 2209 0
-603 -2189 2190 0
-2190 2210 0
610 -2190 2191 0
-2191 2211 0
-611 -2191 2192 0
-2192 2212 0
-612 -2192 2193 0
-2193 2213 0
-613 -2193 2194 0
-2194 2214 0
617 -2194 2195 0
-2195 2215 0
-618 -2195 2196 0
-2196 2216 0
-619 -2196 2197 0
-2197 2217 0
621 -2197 2198 0
-2198 2218 0
-622 -2198 2199 0
-2199 2219 0
623 -2199 2200 0
-2200 2220 0
649 -2200 2201 0
-2201 2221 0
-650 -2201 0
9 2202 0
-2202 2222 0
12 -2202 2203 0
-2203 2223 0
15 -2203 2204 0
-2204 2224 0
599 -2204 2205 0
-2205 2225 0
-600 -2205 2206 0
-2206 2226 0
-601 -2206 2207 0
-2207 2227 0
-602 -2207 2208 0
-2208 2228 0
-603 -2208 2209 0
-2209 2229 0
610 -2209 2210 0
-2210 2230 0
-611 -2210 2211 0
-2211 2231 0
-612 -2211 2212 0
-2212 2232 0
-613 -2212 2213 0
-2213 2233 0
617 -2213 2214 0
-2214 2234 0
-618 -2214 2215 0
-2215 2235 0
-619 -2215 2216 0
-2216 2236 0
621 -2216 2217 0
-2217 2237 0
-622 -2217 2218 0
-2218 2238 0
623 -2218 2219 0
-2219 2239 0
649 -2219 2220 0
-2220 2240 0
-650 -2220 2221 0
-2221 2241 0
-651 -2221 0
12 2222 0
-2222 2242 0
15 -2222 2223 0
-2223 2243 0
599 -2223 2224 0
-2224 2244 0
-600 -2224 2225 0
-2225 2245 0
-601 -2225 2226 0
-2226 2246 0
-602 -2226 2227 0
-2227 2247 0
-603 -2227 2228 0
-2228 2248 0
610 -2228 2229 0
-2229 2249 0
-611 -2229 2230 0
-2230 2250 0
-612 -2230 2231 0
-2231 2251 0
-613 -2231 2232 0
-2232 2252 0
617 -2232 2233 0
-2233 2253 0
-618 -2233 2234 0
-2234 2254 0
-619 -2234 2235 0
-2235 2255 0
621 -2235 2236 0
-2236 2256 0
-622 -2236 2237 0
-2237 2257 0
623 -2237 2238 0
-2238 2258 0
649 -2238 2239 0
-2239 2259 0
-650 -2239 2240 0
-2240 2260 0
-651 -2240 2241 0
-2241 2261 0
-652 -2241 0
15 2242 0
-2242 2262 0
599 -2242 2243 0
-2243 2263 0
-600 -2243 2244 0
-2244 2264 0
-601 -2244 2245 0
-2245 2265 0
-602 -2245 2246 0
-2246 2266 0
-603 -2246 2247 0
-2247 2267 0
610 -2247 2248 0
-2248 2268 0
-611 -2248 2249 0
-2249 2269 0
-612 -2249 2250 0
-2250 2270 0
-613 -2250 2251 0
-2251 2271 0
617 -2251 2252 0
-2252 2272 0
-618 -2252 2253 0
-2253 2273 0
-619 -2253 2254 0
-2254 2274 0
621 -2254 2255 0
-2255 2275 0
-622 -2255 2256 0
-2256 2276 0
623 -2256 2257 0
-2257 2277 0
649 -2257 2258 0
-2258 2278 0
-650 -2258 2259 0
-2259 2279 0
-651 -2259 2260 0
-2260 2280 0
-652 -2260 2261 0
-2261 2281 0
656 -2261 0
599 2262 0
-2262 2282 0
-600 -2262 2263 0
-2263 2283 0
-601 -2263 2264 0
-2264 2284 0
-602 -2264 2265 0
-2265 2285 0
-603 -2265 2266 0
-2266 2286 0
610 -2266 2267 0
-2267 2287 0
-611 -2267 2268 0
-2268 2288 0
-612 -2268 2269 0
-2269 2289 0
-613 -2269 2270 0
-2270 2290 0
617 -2270 2271 0
-2271 2291 0
-618 -2271 2272 0
-2272 2292 0
-619 -2272 2273 0
-2273 2293 0
621 -2273 2274 0
-2274 2294 0
-622 -2274 2275 0
-2275 2295 0
623 -2275 2276 0
-2276 2296 0
649 -2276 2277 0
-2277 2297 0
-650 -2277 2278 0
-2278 2298 0
-651 -2278 2279 0
-2279 2299 0
-652 -2279 2280 0
-2280 2300 0
656 -2280 2281 0
-2281 2301 0
-657 -2281 0
-600 2282 0
-2282 2302 0
-601 -2282 2283 0
-2283 2303 0
-602 -2283 2284 0
-2284 2304 0
-603 -2284 2285 0
-2285 2305 0
610 -2285 2286 0
-2286 2306 0
-611 -2286 2287 0
-2287 2307 0
-612 -2287 2288 0
-2288 2308 0
-613 -2288 2289 0
-2289 2309 0
617 -2289 2290 0
-2290 2310 0
-618 -2290 2291 0
-2291 2311 0
-619 -2291 2292 0
-2292 2312 0
621 -2292 2293 0
-2293 2313 0
-622 -2293 2294 0
-2294 2314 0
623 -2294 2295 0
-2295 2315 0
649 -2295 2296 0
-2296 2316 0
-650 -2296 2297 0
-2297 2317 0
-651 -2297 2298 0
-2298 2318 0
-652 -2298 2299 0
-2299 2319 0
656 -2299 2300 0
-2300 2320 0
-657 -2300 2301 0
-2301 2321 0
-658 -2301 0
-601 2302 0
-2302 2322 0
-602 -2302 2303 0
-2303 2323 0
-603 -2303 2304 0
-2304 2324 0
610 -2304 2305 0
-2305 2325 0
-611 -2305 2306 0
-2306 2326 0
-612 -2306 2307 0
-2307 2327 0
-613 -2307 2308 0
-2308 2328 0
617 -2308 2309 0
-2309 2329 0
-618 -2309 2310 0
-2310 2330 0
-619 -2310 2311 0
-2311 2331 0
621 -2311 2312 0
-2312 2332 0
-622 -2312 2313 0
-2313 2333 0
623 -2313 2314 0
-2314 2334 0
649 -2314 2315 0
-2315 2335 0
-650 -2315 2316 0
-2316 2336 0
-651 -2316 2317 0
-2317 2337 0
-652 -2317 2318 0
-2318 2338 0
656 -2318 2319 0
-2319 2339 0
-657 -2319 2320 0
-2320 2340 0
-658 -2320 2321 0
-2321 2341 0
660 -2321 0
-602 2322 0
-2322 2342 0
-603 -2322 2323 0
-2323 2343 0
610 -2323 2324 0
-2324 2344 0
-611 -2324 2325 0
-2325 2345 0
-612 -2325 2326 0
-2326 2346 0
-613 -2326 2327 0
-2327 2347 0
617 -2327 2328 0
-2328 2348 0
-618 -2328 2329 0
-2329 2349 0
-619 -2329 2330 0
-2330 2350 0
621 -2330 2331 0
-2331 2351 0
-622 -2331 2332 0
-2332 2352 0
623 -2332 2333 0
-2333 2353 0
649 -2333 2334 0
-2334 2354 0
-650 -2334 2335 0
-2335 2355 0
-651 -2335 2336 0
-2336 2356 0
-652 -2336 2337 0
-2337 2357 0
656 -2337 2338 0
-2338 2358 0
-657 -2338 2339 0
-2339 2359 0
-658 -2339 2340 0
-2340 2360 0
660 -2340 2341 0
-2341 2361 0
-661 -2341 0
-603 2342 0
-2342 2362 0
610 -2342 2343 0
-2343 2363 0
-611 -2343 2344 0
-2344 2364 0
-612 -2344 2345 0
-2345 2365 0
-613 -2345 2346 0
-2346 2366 0
617 -2346 2347 0
-2347 2367 0
-618 -2347 2348 0
-2348 2368 0
-619 -2348 2349 0
-2349 2369 0
621 -2349 2350 0
-2350 2370 0
-622 -2350 2351 0
-2351 2371 0
623 -2351 2352 0
-2352 2372 0
649 -2352 2353 0
-2353 2373 0
-650 -2353 2354 0
-2354 2374 0
-651 -2354 2355 0
-2355 2375 0
-652 -2355 2356 0
-2356 2376 0
656 -2356 2357 0
-2357 2377 0
-657 -2357 2358 0
-2358 2378 0
-658 -2358 2359 0
-2359 2379 0
660 -2359 2360 0
-2360 2380 0
-661 -2360 2361 0
-2361 2381 0
662 -2361 0
610 2362 0
-2362 2382 0
-611 -2362 2363 0
-2363 2383 0
-612 -2363 2364 0
-2364 2384 0
-613 -2364 2365 0
-2365 2385 0
617 -2365 2366 0
-2366 2386 0
-618 -2366 2367 0
-2367 2387 0
-619 -2367 2368 0
-2368 2388 0
621 -2368 2369 0
-2369 2389 0
-622 -2369 2370 0
-2370 2390 0
623 -2370 2371 0
-2371 2391 0
649 -2371 2372 0
-2372 2392 0
-650 -2372 2373 0
-2373 2393 0
-651 -2373 2374 0
-2374 2394 0
-652 -2374 2375 0
-2375 2395 0
656 -2375 2376 0
-2376 2396 0
-657 -2376 2377 0
-2377 2397 0
-658 -2377 2378 0
-2378 2398 0
660 -2378 2379 0
-2379 2399 0
-661 -2379 2380 0
-2380 2400 0
662 -2380 2381 0
-2381 2401 0
663 -2381 0
-611 2382 0
-2382 2402 0
-612 -2382 2383 0
-2383 2403 0
-613 -2383 2384 0
-2384 2404 0
617 -2384 2385 0
-2385 2405 0
-618 -2385 2386 0
-2386 2406 0
-619 -2386 2387 0
-2387 2407 0
621 -2387 2388 0
-2388 2408 0
-622 -2388 2389 0
-2389 2409 0
623 -2389 2390 0
-2390 2410 0
649 -2390 2391 0
-2391 2411 0
-650 -2391 2392 0
-2392 2412 0
-651 -2392 2393 0
-2393 2413 0
-652 -2393 2394 0
-2394 2414 0
656 -2394 2395 0
-2395 2415 0
-657 -2395 2396 0
-2396 2416 0
-658 -2396 2397 0
-2397 2417 0
660 -2397 2398 0
-2398 2418 0
-661 -2398 2399 0
-2399 2419 0
662 -2399 2400 0
-2400 2420 0
663 -2400 2401 0
-2401 2421 0
-664 -2401 0
-612 2402 0
-2402 2422 0
-613 -2402 2403 0
-2403 2423 0
617 -2403 2404 0
-2404 2424 0
-618 -2404 2405 0
-2405 2425 0
-619 -2405 2406 0
-2406 2426 0
621 -2406 2407 0
-2407 2427 0
-622 -2407 2408 0
-2408 2428 0
623 -2408 2409 0
-2409 2429 0
649 -2409 2410 0
-2410 2430 0
-650 -2410 2411 0
-2411 2431 0
-651 -2411 2412 0
-2412 2432 0
-652 -2412 2413 0
-2413 2433 0
656 -2413 2414 0
-2414 2434 0
-657 -2414 2415 0
-2415 2435 0
-658 -2415 2416 0
-2416 2436 0
660 -2416 2417 0
-2417 2437 0
-661 -2417 2418 0
-2418 2438 0
662 -2418 2419 0
-2419 2439 0
663 -2419 2420 0
-2420 2440 0
-664 -2420 2421 0
-2421 2441 0
-665 -2421 0
-613 2422 0
-2422 2442 0
617 -2422 2423 0
-2423 2443 0
-618 -2423 2424 0
-2424 2444 0
-619 -2424 2425 0
-2425 2445 0
621 -2425 2426 0
-2426 2446 0
-622 -2426 2427 0
-2427 2447 0
623 -2427 2428 0
-2428 2448 0
649 -2428 2429 0
-2429 2449 0
-650 -2429 2430 0
-2430 2450 0
-651 -2430 2431 0
-2431 2451 0
-652 -2431 2432 0
-2432 2452 0
656 -2432 2433 0
-2433 2453 0
-657 -2433 2434 0
-2434 2454 0
-658 -2434 2435 0
-2435 2455 0
660 -2435 2436 0
-2436 2456 0
-661 -2436 2437 0
-2437 2457 0
662 -2437 2438 0
-2438 2458 0
663 -2438 2439 0
-2439 2459 0
-664 -2439 2440 0
-2440 2460 0
-665 -2440 2441 0
-2441 2461 0
667 -2441 0
617 2442 0
-2442 2462 0
-618 -2442 2443 0
-2443 2463 0
-619 -2443 2444 0
-2444 2464 0
621 -2444 2445 0
-2445 2465 0
-622 -2445 2446 0
-2446 2466 0
623 -2446 2447 0
-2447 2467 0
649 -2447 2448 0
-2448 2468 0
-650 -2448 2449 0
-2449 2469 0
-651 -2449 2450 0
-2450 2470 0
-652 -2450 2451 0
-2451 2471 0
656 -2451 2452 0
-2452 2472 0
-657 -2452 2453 0
-2453 2473 0
-658 -2453 2454 0
-2454 2474 0
660 -2454 2455 0
-2455 2475 0
-661 -2455 2456 0
-2456 2476 0
662 -2456 2457 0
-2457 2477 0
663 -2457 2458 0
-2458 2478 0
-664 -2458 2459 0
-2459 2479 0
-665 -2459 2460 0
-2460 2480 0
667 -2460 2461 0
-2461 2481 0
-668 -2461 0
-618 2462 0
-2462 2482 0
-619 -2462 2463 0
-2463 2483 0
621 -2463 2464 0
-2464 2484 0
-622 -2464 2465 0
-2465 2485 0
623 -2465 2466 0
-2466 2486 0
649 -2466 2467 0
-2467 2487 0
-650 -2467 2468 0
-2468 2488 0
-651 -2468 2469 0
-2469 2489 0
-652 -2469 2470 0
-2470 2490 0
656 -2470 2471 0
-2471 2491 0
-657 -2471 2472 0
-2472 2492 0
-658 -2472 2473 0
-2473 2493 0
660 -2473 2474 0
-2474 2494 0
-661 -2474 2475 0
-2475 2495 0
662 -2475 2476 0
-2476 2496 0
663 -2476 2477 0
-2477 2497 0
-664 -2477 2478 0
-2478 2498 0
-665 -2478 2479 0
-2479 2499 0
667 -2479 2480 0
-2480 2500 0
-668 -2480 2481 0
-2481 2501 0
669 -2481 0
-619 2482 0
-2482 2502 0
621 -2482 2483 0
-2483 2503 0
-622 -2483 2484 0
-2484 2504 0
623 -2484 2485 0
-2485 2505 0
649 -2485 2486 0
-2486 2506 0
-650 -2486 2487 0
-2487 2507 0
-651 -2487 2488 0
-2488 2508 0
-652 -2488 2489 0
-2489 2509 0
656 -2489 2490 0
-2490 2510 0
-657 -2490 2491 0
-2491 2511 0
-658 -2491 2492 0
-2492 2512 0
660 -2492 2493 0
-2493 2513 0
-661 -2493 2494 0
-2494 2514 0
662 -2494 2495 0
-2495 2515 0
663 -2495 2496 0
-2496 2516 0
-664 -2496 2497 0
-2497 2517 0
-665 -2497 2498 0
-2498 2518 0
667 -2498 2499 0
-2499 2519 0
-668 -2499 2500 0
-2500 2520 0
669 -2500 2501 0
-2501 2521 0
670 -2501 0
621 2502 0
-2502 2522 0
-622 -2502 2503 0
-2503 2523 0
623 -2503 2504 0
-2504 2524 0
649 -2504 2505 0
-2505 2525 0
-650 -2505 2506 0
-2506 2526 0
-651 -2506 2507 0
-2507 2527 0
-652 -2507 2508 0
-2508 2528 0
656 -2508 2509 0
-2509 2529 0
-657 -2509 2510 0
-2510 2530 0
-658 -2510 2511 0
-2511 2531 0
660 -2511 2512 0
-2512 2532 0
-661 -2512 2513 0
-2513 2533 0
662 -2513 2514 0
-2514 2534 0
663 -2514 2515 0
-2515 2535 0
-664 -2515 2516 0
-2516 2536 0
-665 -2516 2517 0
-2517 2537 0
667 -2517 2518 0
-2518 2538 0
-668 -2518 2519 0
-2519 2539 0
669 -2519 2520 0
-2520 2540 0
670 -2520 2521 0
-2521 2541 0
-671 -2521 0
-622 2522 0
-2522 2542 0
623 -2522 2523 0
-2523 2543 0
649 -2523 2524 0
-2524 2544 0
-650 -2524 2525 0
-2525 2545 0
-651 -2525 2526 0
-2526 2546 0
-652 -2526 2527 0
-2527 2547 0
656 -2527 2528 0
-2528 2548 0
-657 -2528 2529 0
-2529 2549 0
-658 -2529 2530 0
-2530 2550 0
660 -2530 2531 0
-2531 2551 0
-661 -2531 2532 0
-2532 2552 0
662 -2532 2533 0
-2533 2553 0
663 -2533 2534 0
-2534 2554 0
-664 -2534 2535 0
-2535 2555 0
-665 -2535 2536 0
-2536 2556 0
667 -2536 2537 0
-2537 2557 0
-668 -2537 2538 0
-2538 2558 0
669 -2538 2539 0
-2539 2559 0
670 -2539 2540 0
-2540 2560 0
-671 -2540 2541 0
-2541 2561 0
672 -2541 0
623 2542 0
649 -2542 2543 0
-650 -2543 2544 0
-651 -2544 2545 0
-652 -2545 2546 0
656 -2546 2547 0
-657 -2547 2548 0
-658 -2548 2549 0
660 -2549 2550 0
-661 -2550 2551 0
662 -2551 2552 0
663 -2552 2553 0
-664 -2553 2554 0
-665 -2554 2555 0
667 -2555 2556 0
-668 -2556 2557 0
669 -2557 2558 0
670 -2558 2559 0
-671 -2559 2560 0
672 -2560 2561 0
673 -2561 0
-288 2562 0
-2562 2563 0
-293 -2562 2564 0
-2564 2565 0
-294 -2564 2566 0
-2566 2567 0
-295 -2566 2568 0
-2568 2569 0
-296 -2568 2570 0
-2570 2571 0
-303 -2570 2572 0
-2572 2573 0
-304 -2572 2574 0
-2574 2575 0
-305 -2574 2576 0
-2576 2577 0
-306 -2576 2578 0
-2578 2579 0
-313 -2578 2580 0
-2580 2581 0
-314 -2580 2582 0
-2582 2583 0
-315 -2582 2584 0
-2584 2585 0
-316 -2584 2586 0
-2586 2587 0
-317 -2586 2588 0
-2588 2589 0
-318 -2588 2590 0
-2590 2591 0
1 -2590 2592 0
-2592 2593 0
3 -2592 2594 0
-2594 2595 0
17 -2594 2596 0
-2596 2597 0
19 -2596 2598 0
-2598 2599 0
21 -2598 2600 0
-2600 2601 0
23 -2600 0
-293 2563 0
-2563 2602 0
-294 -2563 2565 0
-2565 2603 0
-295 -2565 2567 0
-2567 2604 0
-296 -2567 2569 0
-2569 2605 0
-303 -2569 2571 0
-2571 2606 0
-304 -2571 2573 0
-2573 2607 0
-305 -2573 2575 0
-2575 2608 0
-306 -2575 2577 0
-2577 2609 0
-313 -2577 2579 0
-2579 2610 0
-314 -2579 2581 0
-2581 2611 0
-315 -2581 2583 0
-2583 2612 0
-316 -2583 2585 0
-2585 2613 0
-317 -2585 2587 0
-2587 2614 0
-318 -2587 2589 0
-2589 2615 0
1 -2589 2591 0
-2591 2616 0
3 -2591 2593 0
-2593 2617 0
17 -2593 2595 0
-2595 2618 0
19 -2595 2597 0
-2597 2619 0
21 -2597 2599 0
-2599 2620 0
23 -2599 2601 0
-2601 2621 0
599 -2601 0
-294 2602 0
-2602 2622 0
-295 -2602 2603 0
-2603 2623 0
-296 -2603 2604 0
-2604 2624 0
-303 -2604 2605 0
-2605 2625 0
-304 -2605 2606 0
-2606 2626 0
-305 -2606 2607 0
-2607 2627 0
-306 -2607 2608 0
-2608 2628 0
-313 -2608 2609 0
-2609 2629 0
-314 -2609 2610 0
-2610 2630 0
-315 -2610 2611 0
-2611 2631 0
-316 -2611 2612 0
-2612 2632 0
-317 -2612 2613 0
-2613 2633 0
-318 -2613 2614 0
-2614 2634 0
1 -2614 2615 0
-2615 2635 0
3 -2615 2616 0
-2616 2636 0
17 -2616 2617 0
-2617 2637 0
19 -2617 2618 0
-2618 2638 0
21 -2618 2619 0
-2619 2639 0
23 -2619 2620 0
-2620 2640 0
599 -2620 2621 0
-2621 2641 0
-600 -2621 0
-295 2622 0
-2622 2642 0
-296 -2622 2623 0
-2623 2643 0
-303 -2623 2624 0
-2624 2644 0
-304 -2624 2625 0
-2625 2645 0
-305 -2625 2626 0
-2626 2646 0
-306 -2626 2627 0
-2627 2647 0
-313 -2627 2628 0
-2628 2648 0
-314 -2628 2629 0
-2629 2649 0
-315 -2629 2630 0
-2630 2650 0
-316 -2630 2631 0
-2631 2651 0
-317 -2631 2632 0
-2632 2652 0
-318 -2632 2633 0
-2633 2653 0
1 -2633 2634 0
-2634 2654 0
3 -2634 2635 0
-2635 2655 0
17 -2635 2636 0
-2636 2656 0
19 -2636 2637 0
-2637 2657 0
21 -2637 2638 0
-2638 2658 0
23 -2638 2639 0
-2639 2659 0
599 -2639 2640 0
-2640 2660 0
-600 -2640 2641 0
-2641 2661 0
-601 -2641 0
-296 2642 0
-2642 2662 0
-303 -2642 2643 0
-2643 2663 0
-304 -2643 2644 0
-2644 2664 0
-305 -2644 2645 0
-2645 2665 0
-306 -2645 2646 0
-2646 2666 0
-313 -2646 2647 0
-2647 2667 0
-314 -2647 2648 0
-2648 2668 0
-315 -2648 2649 0
-2649 2669 0
-316 -2649 2650 0
-2650 2670 0
-317 -2650 2651 0
-2651 2671 0
-318 -2651 2652 0
-2652 2672 0
1 -2652 2653 0
-2653 2673 0
3 -2653 2654 0
-2654 2674 0
17 -2654 2655 0
-2655 2675 0
19 -2655 2656 0
-2656 2676 0
21 -2656 2657 0
-2657 2677 0
23 -2657 2658 0
-2658 2678 0
599 -2658 2659 0
-2659 2679 0
-600 -2659 2660 0
-2660 2680 0
-601 -2660 2661 0
-2661 2681 0
-602 -2661 0
-303 2662 0
-2662 2682 0
-304 -2662 2663 0
-2663 2683 0
-305 -2663 2664 0
-2664 2684 0
-306 -2664 2665 0
-2665 2685 0
-313 -2665 2666 0
-2666 2686 0
-314 -2666 2667 0
-2667 2687 0
-315 -2667 2668 0
-2668 2688 0
-316 -2668 2669 0
-2669 2689 0
-317 -2669 2670 0
-2670 2690 0
-318 -2670 2671 0
-2671 2691 0
1 -2671 2672 0
-2672 2692 0
3 -2672 2673 0
-2673 2693 0
17 -2673 2674 0
-2674 2694 0
19 -2674 2675 0
-2675 2695 0
21 -2675 2676 0
-2676 2696 0
23 -2676 2677 0
-2677 2697 0
599 -2677 2678 0
-2678 2698 0
-600 -2678 2679 0
-2679 2699 0
-601 -2679 2680 0
-2680 2700 0
-602 -2680 2681 0
-2681 2701 0
-603 -2681 0
-304 2682 0
-2682 2702 0
-305 -2682 2683 0
-2683 2703 0
-306 -2683 2684 0
-2684 2704 0
-313 -2684 2685 0
-2685 2705 0
-314 -2685 2686 0
-2686 2706 0
-315 -2686 2687 0
-2687 2707 0
-316 -2687 2688 0
-2688 2708 0
-317 -2688 2689 0
-2689 2709 0
-318 -2689 2690 0
-2690 2710 0
1 -2690 2691 0
-2691 2711 0
3 -2691 2692 0
-2692 2712 0
17 -2692 2693 0
-2693 2713 0
19 -2693 2694 0
-2694 2714 0
21 -2694 2695 0
-2695 2715 0
23 -2695 2696 0
-2696 2716 0
599 -2696 2697 0
-2697 2717 0
-600 -2697 2698 0
-2698 2718 0
-601 -2698 2699 0
-2699 2719 0
-602 -2699 2700 0
-2700 2720 0
-603 -2700 2701 0
-2701 2721 0
624 -2701 0
-305 2702 0
-2702 2722 0
-306 -2702 2703 0
-2703 2723 0
-313 -2703 2704 0
-2704 2724 0
-314 -2704 2705 0
-2705 2725 0
-315 -2705 2706 0
-2706 2726 0
-316 -2706 2707 0
-2707 2727 0
-317 -2707 2708 0
-2708 2728 0
-318 -2708 2709 0
-2709 2729 0
1 -2709 2710 0
-2710 2730 0
3 -2710 2711 0
-2711 2731 0
17 -2711 2712 0
-2712 2732 0
19 -2712 2713 0
-2713 2733 0
21 -2713 2714 0
-2714 2734 0
23 -2714 2715 0
-2715 2735 0
599 -2715 2716 0
-2716 2736 0
-600 -2716 2717 0
-2717 2737 0
-601 -2717 2718 0
-2718 2738 0
-602 -2718 2719 0
-2719 2739 0
-603 -2719 2720 0
-2720 2740 0
624 -2720 2721 0
-2721 2741 0
-625 -2721 0
-306 2722 0
-2722 2742 0
-313 -2722 2723 0
-2723 2743 0
-314 -2723 2724 0
-2724 2744 0
-315 -2724 2725 0
-2725 2745 0
-316 -2725 2726 0
-2726 2746 0
-317 -2726 2727 0
-2727 2747 0
-318 -2727 2728 0
-2728 2748 0
1 -2728 2729 0
-2729 2749 0
3 -2729 2730 0
-2730 2750 0
17 -2730 2731 0
-2731 2751 0
19 -2731 2732 0
-2732 2752 0
21 -2732 2733 0
-2733 2753 0
23 -2733 2734 0
-2734 2754 0
599 -2734 2735 0
-2735 2755 0
-600 -2735 2736 0
-2736 2756 0
-601 -2736 2737 0
-2737 2757 0
-602 -2737 2738 0
-2738 2758 0
-603 -2738 2739 0
-2739 2759 0
624 -2739 2740 0
-2740 2760 0
-625 -2740 2741 0
-2741 2761 0
-626 -2741 0
-313 2742 0
-2742 2762 0
-314 -2742 2743 0
-2743 2763 0
-315 -2743 2744 0
-2744 2764 0
-316 -2744 2745 0
-2745 2765 0
-317 -2745 2746 0
-2746 2766 0
-318 -2746 2747 0
-2747 2767 0
1 -2747 2748 0
-2748 2768 0
3 -2748 2749 0
-2749 2769 0
17 -2749 2750 0
-2750 2770 0
19 -2750 2751 0
-2751 2771 0
21 -2751 2752 0
-2752 2772 0
23 -2752 2753 0
-2753 2773 0
599 -2753 2754 0
-2754 2774 0
-600 -2754 2755 0
-2755 2775 0
-601 -2755 2756 0
-2756 2776 0
-602 -2756 2757 0
-2757 2777 0
-603 -2757 2758 0
-2758 2778 0
624 -2758 2759 0
-2759 2779 0
-625 -2759 2760 0
-2760 2780 0
-626 -2760 2761 0
-2761 2781 0
-627 -2761 0
-314 2762 0
-2762 2782 0
-315 -2762 2763 0
-2763 2783 0
-316 -2763 2764 0
-2764 2784 0
-317 -2764 2765 0
-2765 2785 0
-318 -2765 2766 0
-2766 2786 0
1 -2766 2767 0
-2767 2787 0
3 -2767 2768 0
-2768 2788 0
17 -2768 2769 0
-2769 2789 0
19 -2769 2770 0
-2770 2790 0
21 -2770 2771 0
-2771 2791 0
23 -2771 2772 0
-2772 2792 0
599 -2772 2773 0
-2773 2793 0
-600 -2773 2774 0
-2774 2794 0
-601 -2774 2775 0
-2775 2795 0
-602 -2775 2776 0
-2776 2796 0
-603 -2776 2777 0
-2777 2797 0
624 -2777 2778 0
-2778 2798 0
-625 -2778 2779 0
-2779 2799 0
-626 -2779 2780 0
-2780 2800 0
-627 -2780 2781 0
-2781 2801 0
631 -2781 0
-315 2782 0
-2782 2802 0
-316 -2782 2783 0
-2783 2803 0
-317 -2783 2784 0
-2784 2804 0
-318 -2784 2785 0
-2785 2805 0
1 -2785 2786 0
-2786 2806 0
3 -2786 2787 0
-2787 2807 0
17 -2787 2788 0
-2788 2808 0
19 -2788 2789 0
-2789 2809 0
21 -2789 2790 0
-2790 2810 0
23 -2790 2791 0
-2791 2811 0
599 -2791 2792 0
-2792 2812 0
-600 -2792 2793 0
-2793 2813 0
-601 -2793 2794 0
-2794 2814 0
-602 -2794 2795 0
-2795 2815 0
-603 -2795 2796 0
-2796 2816 0
624 -2796 2797 0
-2797 2817 0
-625 -2797 2798 0
-2798 2818 0
-626 -2798 2799 0
-2799 2819 0
-627 -2799 2800 0
-2800 2820 0
631 -2800 2801 0
-2801 2821 0
-632 -2801 0
-316 2802 0
-2802 2822 0
-317 -2802 2803 0
-2803 2823 0
-318 -2803 2804 0
-2804 2824 0
1 -2804 2805 0
-2805 2825 0
3 -2805 2806 0
-2806 2826 0
17 -2806 2807 0
-2807 2827 0
19 -2807 2808 0
-2808 2828 0
21 -2808 2809 0
-2809 2829 0
23 -2809 2810 0
-2810 2830 0
599 -2810 2811 0
-2811 2831 0
-600 -2811 2812 0
-2812 2832 0
-601 -2812 2813 0
-2813 2833 0
-602 -2813 2814 0
-2814 2834 0
-603 -2814 2815 0
-2815 2835 0
624 -2815 2816 0
-2816 2836 0
-625 -2816 2817 0
-2817 2837 0
-626 -2817 2818 0
-2818 2838 0
-627 -2818 2819 0
-2819 2839 0
631 -2819 2820 0
-2820 2840 0
-632 -2820 2821 0
-2821 2841 0
-633 -2821 0
-317 2822 0
-2822 2842 0
-318 -2822 2823 0
-2823 2843 0
1 -2823 2824 0
-2824 2844 0
3 -2824 2825 0
-2825 2845 0
17 -2825 2826 0
-2826 2846 0
19 -2826 2827 0
-2827 2847 0
21 -2827 2828 0
-2828 2848 0
23 -2828 2829 0
-2829 2849 0
599 -2829 2830 0
-2830 2850 0
-600 -2830 2831 0
-2831 2851 0
-601 -2831 2832 0
-2832 2852 0
-602 -2832 2833 0
-2833 2853 0
-603 -2833 2834 0
-2834 2854 0
624 -2834 2835 0
-2835 2855 0
-625 -2835 2836 0
-2836 2856 0
-626 -2836 2837 0
-2837 2857 0
-627 -2837 2838 0
-2838 2858 0
631 -2838 2839 0
-2839 2859 0
-632 -2839 2840 0
-2840 2860 0
-633 -2840 2841 0
-2841 2861 0
635 -2841 0
-318 2842 0
-2842 2862 0
1 -2842 2843 0
-2843 2863 0
3 -2843 2844 0
-2844 2864 0
17 -2844 2845 0
-2845 2865 0
19 -2845 2846 0
-2846 2866 0
21 -2846 2847 0
-2847 2867 0
23 -2847 2848 0
-2848 2868 0
599 -2848 2849 0
-2849 2869 0
-600 -2849 2850 0
-2850 2870 0
-601 -2850 2851 0
-2851 2871 0
-602 -2851 2852 0
-2852 2872 0
-603 -2852 2853 0
-2853 2873 0
624 -2853 2854 0
-2854 2874 0
-625 -2854 2855 0
-2855 2875 0
-626 -2855 2856 0
-2856 2876 0
-627 -2856 2857 0
-2857 2877 0
631 -2857 2858 0
-2858 2878 0
-632 -2858 2859 0
-2859 2879 0
-633 -2859 2860 0
-2860 2880 0
635 -2860 2861 0
-2861 2881 0
-636 -2861 0
1 2862 0
-2862 2882 0
3 -2862 2863 0
-2863 2883 0
17 -2863 2864 0
-2864 2884 0
19 -2864 2865 0
-2865 2885 0
21 -2865 2866 0
-2866 2886 0
23 -2866 2867 0
-2867 2887 0
599 -2867 2868 0
-2868 2888 0
-600 -2868 2869 0
-2869 2889 0
-601 -2869 2870 0
-2870 2890 0
-602 -2870 2871 0
-2871 2891 0
-603 -2871 2872 0
-2872 2892 0
624 -2872 2873 0
-2873 2893 0
-625 -2873 2874 0
-2874 2894 0
-626 -2874 2875 0
-2875 2895 0
-627 -2875 2876 0
-2876 2896 0
631 -2876 2877 0
-2877 2897 0
-632 -2877 2878 0
-2878 2898 0
-633 -2878 2879 0
-2879 2899 0
635 -2879 2880 0
-2880 2900 0
-636 -2880 2881 0
-2881 2901 0
637 -2881 0
3 2882 0
-2882 2902 0
17 -2882 2883 0
-2883 2903 0
19 -2883 2884 0
-2884 2904 0
21 -2884 2885 0
-2885 2905 0
23 -2885 2886 0
-2886 2906 0
599 -2886 2887 0
-2887 2907 0
-600 -2887 2888 0
-2888 2908 0
-601 -2888 2889 0
-2889 2909 0
-602 -2889 2890 0
-2890 2910 0
-603 -2890 2891 0
-2891 2911 0
624 -2891 2892 0
-2892 2912 0
-625 -2892 2893 0
-2893 2913 0
-626 -2893 2894 0
-2894 2914 0
-627 -2894 2895 0
-2895 2915 0
631 -2895 2896 0
-2896 2916 0
-632 -2896 2897 0
-2897 2917 0
-633 -2897 2898 0
-2898 2918 0
635 -2898 2899 0
-2899 2919 0
-636 -2899 2900 0
-2900 2920 0
637 -2900 2901 0
-2901 2921 0
649 -2901 0
17 2902 0
-2902 2922 0
19 -2902 2903 0
-2903 2923 0
21 -2903 2904 0
-2904 2924 0
23 -2904 2905 0
-2905 2925 0
599 -2905 2906 0
-2906 2926 0
-600 -2906 2907 0
-2907 2927 0
-601 -2907 2908 0
-2908 2928 0
-602 -2908 2909 0
-2909 2929 0
-603 -2909 2910 0
-2910 2930 0
624 -2910 2911 0
-2911 2931 0
-625 -2911 2912 0
-2912 2932 0
-626 -2912 2913 0
-2913 2933 0
-627 -2913 2914 0
-2914 2934 0
631 -2914 2915 0
-2915 2935 0
-632 -2915 2916 0
-2916 2936 0
-633 -2916 2917 0
-2917 2937 0
635 -2917 2918 0
-2918 2938 0
-636 -2918 2919 0
-2919 2939 0
637 -2919 2920 0
-2920 2940 0
649 -2920 2921 0
-2921 2941 0
-650 -2921 0
19 2922 0
-2922 2942 0
21 -2922 2923 0
-2923 2943 0
23 -2923 2924 0
-2924 2944 0
599 -2924 2925 0
-2925 2945 0
-600 -2925 2926 0
-2926 2946 0
-601 -2926 2927 0
-2927 2947 0
-602 -2927 2928 0
-2928 2948 0
-603 -2928 2929 0
-2929 2949 0
624 -2929 2930 0
-2930 2950 0
-625 -2930 2931 0
-2931 2951 0
-626 -2931 2932 0
-2932 2952 0
-627 -2932 2933 0
-2933 2953 0
631 -2933 2934 0
-2934 2954 0
-632 -2934 2935 0
-2935 2955 0
-633 -2935 2936 0
-2936 2956 0
635 -2936 2937 0
-2937 2957 0
-636 -2937 2938 0
-2938 2958 0
637 -2938 2939 0
-2939 2959 0
649 -2939 2940 0
-2940 2960 0
-650 -2940 2941 0
-2941 2961 0
-651 -2941 0
21 2942 0
-2942 2962 0
23 -2942 2943 0
-2943 2963 0
599 -2943 2944 0
-2944 2964 0
-600 -2944 2945 0
-2945 2965 0
-601 -2945 2946 0
-2946 2966 0
-602 -2946 2947 0
-2947 2967 0
-603 -2947 2948 0
-2948 2968 0
624 -2948 2949 0
-2949 2969 0
-625 -2949 2950 0
-2950 2970 0
-626 -2950 2951 0
-2951 2971 0
-627 -2951 2952 0
-2952 2972 0
631 -2952 2953 0
-2953 2973 0
-632 -2953 2954 0
-2954 2974 0
-633 -2954 2955 0
-2955 2975 0
635 -2955 2956 0
-2956 2976 0
-636 -2956 2957 0
-2957 2977 0
637 -2957 2958 0
-2958 2978 0
649 -2958 2959 0
-2959 2979 0
-650 -2959 2960 0
-2960 2980 0
-651 -2960 2961 0
-2961 2981 0
-652 -2961 0
23 2962 0
-2962 2982 0
599 -2962 2963 0
-2963 2983 0
-600 -2963 2964 0
-2964 2984 0
-601 -2964 2965 0
-2965 2985 0
-602 -2965 2966 0
-2966 2986 0
-603 -2966 2967 0
-2967 2987 0
624 -2967 2968 0
-2968 2988 0
-625 -2968 2969 0
-2969 2989 0
-626 -2969 2970 0
-2970 2990 0
-627 -2970 2971 0
-2971 2991 0
631 -2971 2972 0
-2972 2992 0
-632 -2972 2973 0
-2973 2993 0
-633 -2973 2974 0
-2974 2994 0
635 -2974 2975 0
-2975 2995 0
-636 -2975 2976 0
-2976 2996 0
637 -2976 2977 0
-2977 2997 0
649 -2977 2978 0
-2978 2998 0
-650 -2978 2979 0
-2979 2999 0
-651 -2979 2980 0
-2980 3000 0
-652 -2980 2981 0
-2981 3001 0
656 -2981 0
599 2982 0
-2982 3002 0
-600 -2982 2983 0
-2983 3003 0
-601 -2983 2984 0
-2984 3004 0
-602 -2984 2985 0
-2985 3005 0
-603 -2985 2986 0
-2986 3006 0
624 -2986 2987 0
-2987 3007 0
-625 -2987 2988 0
-2988 3008 0
-626 -2988 2989 0
-2989 3009 0
-627 -2989 2990 0
-2990 3010 0
631 -2990 2991 0
-2991 3011 0
-632 -2991 2992 0
-2992 3012 0
-633 -2992 2993 0
-2993 3013 0
635 -2993 2994 0
-2994 3014 0
-636 -2994 2995 0
-2995 3015 0
637 -2995 2996 0
-2996 3016 0
649 -2996 2997 0
-2997 3017 0
-650 -2997 2998 0
-2998 3018 0
-651 -2998 2999 0
-2999 3019 0
-652 -2999 3000 0
-3000 3020 0
656 -3000 3001 0
-3001 3021 0
-657 -3001 0
-600 3002 0
-3002 3022 0
-601 -3002 3003 0
-3003 3023 0
-602 -3003 3004 0
-3004 3024 0
-603 -3004 3005 0
-3005 3025 0
624 -3005 3006 0
-3006 3026 0
-625 -3006 3007 0
-3007 3027 0
-626 -3007 3008 0
-3008 3028 0
-627 -3008 3009 0
-3009 3029 0
631 -3009 3010 0
-3010 3030 0
-632 -3010 3011 0
-3011 3031 0
-633 -3011 3012 0
-3012 3032 0
635 -3012 3013 0
-3013 3033 0
-636 -3013 3014 0
-3014 3034 0
637 -3014 3015 0
-3015 3035 0
649 -3015 3016 0
-3016 3036 0
-650 -3016 3017 0
-3017 3037 0
-651 -3017 3018 0
-3018 3038 0
-652 -3018 3019 0
-3019 3039 0
656 -3019 3020 0
-3020 3040 0
-657 -3020 3021 0
-3021 3041 0
-658 -3021 0
-601 3022 0
-3022 3042 0
-602 -3022 3023 0
-3023 3043 0
-603 -3023 3024 0
-3024 3044 0
624 -3024 3025 0
-3025 3045 0
-625 -3025 3026 0
-3026 3046 0
-626 -3026 3027 0
-3027 3047 0
-627 -3027 3028 0
-3028 3048 0
631 -3028 3029 0
-3029 3049 0
-632 -3029 3030 0
-3030 3050 0
-633 -3030 3031 0
-3031 3051 0
635 -3031 3032 0
-3032 3052 0
-636 -3032 3033 0
-3033 3053 0
637 -3033 3034 0
-3034 3054 0
649 -3034 3035 0
-3035 3055 0
-650 -3035 3036 0
-3036 3056 0
-651 -3036 3037 0
-3037 3057 0
-652 -3037 3038 0
-3038 3058 0
656 -3038 3039 0
-3039 3059 0
-657 -3039 3040 0
-3040 3060 0
-658 -3040 3041 0
-3041 3061 0
660 -3041 0
-602 3042 0
-3042 3062 0
-603 -3042 3043 0
-3043 3063 0
624 -3043 3044 0
-3044 3064 0
-625 -3044 3045 0
-3045 3065 0
-626 -3045 3046 0
-3046 3066 0
-627 -3046 3047 0
-3047 3067 0
631 -3047 3048 0
-3048 3068 0
-632 -3048 3049 0
-3049 3069 0
-633 -3049 3050 0
-3050 3070 0
635 -3050 3051 0
-3051 3071 0
-636 -3051 3052 0
-3052 3072 0
637 -3052 3053 0
-3053 3073 0
649 -3053 3054 0
-3054 3074 0
-650 -3054 3055 0
-3055 3075 0
-651 -3055 3056 0
-3056 3076 0
-652 -3056 3057 0
-3057 3077 0
656 -3057 3058 0
-3058 3078 0
-657 -3058 3059 0
-3059 3079 0
-658 -3059 3060 0
-3060 3080 0
660 -3060 3061 0
-3061 3081 0
-661 -3061 0
-603 3062 0
-3062 3082 0
624 -3062 3063 0
-3063 3083 0
-625 -3063 3064 0
-3064 3084 0
-626 -3064 3065 0
-3065 3085 0
-627 -3065 3066 0
-3066 3086 0
631 -3066 3067 0
-3067 3087 0
-632 -3067 3068 0
-3068 3088 0
-633 -3068 3069 0
-3069 3089 0
635 -3069 3070 0
-3070 3090 0
-636 -3070 3071 0
-3071 3091 0
637 -3071 3072 0
-3072 3092 0
649 -3072 3073 0
-3073 3093 0
-650 -3073 3074 0
-3074 3094 0
-651 -3074 3075 0
-3075 3095 0
-652 -3075 3076 0
-3076 3096 0
656 -3076 3077 0
-3077 3097 0
-657 -3077 3078 0
-3078 3098 0
-658 -3078 3079 0
-3079 3099 0
660 -3079 3080 0
-3080 3100 0
-661 -3080 3081 0
-3081 3101 0
662 -3081 0
624 3082 0
-3082 3102 0
-625 -3082 3083 0
-3083 3103 0
-626 -3083 3084 0
-3084 3104 0
-627 -3084 3085 0
-3085 3105 0
631 -3085 3086 0
-3086 3106 0
-632 -3086 3087 0
-3087 3107 0
-633 -3087 3088 0
-3088 3108 0
635 -3088 3089 0
-3089 3109 0
-636 -3089 3090 0
-3090 3110 0
637 -3090 3091 0
-3091 3111 0
649 -3091 3092 0
-3092 3112 0
-650 -3092 3093 0
-3093 3113 0
-651 -3093 3094 0
-3094 3114 0
-652 -3094 3095 0
-3095 3115 0
656 -3095 3096 0
-3096 3116 0
-657 -3096 3097 0
-3097 3117 0
-658 -3097 3098 0
-3098 3118 0
660 -3098 3099 0
-3099 3119 0
-661 -3099 3100 0
-3100 3120 0
662 -3100 3101 0
-3101 3121 0
674 -3101 0
-625 3102 0
-3102 3122 0
-626 -3102 3103 0
-3103 3123 0
-627 -3103 3104 0
-3104 3124 0
631 -3104 3105 0
-3105 3125 0
-632 -3105 3106 0
-3106 3126 0
-633 -3106 3107 0
-3107 3127 0
635 -3107 3108 0
-3108 3128 0
-636 -3108 3109 0
-3109 3129 0
637 -3109 3110 0
-3110 3130 0
649 -3110 3111 0
-3111 3131 0
-650 -3111 3112 0
-3112 3132 0
-651 -3112 3113 0
-3113 3133 0
-652 -3113 3114 0
-3114 3134 0
656 -3114 3115 0
-3115 3135 0
-657 -3115 3116 0
-3116 3136 0
-658 -3116 3117 0
-3117 3137 0
660 -3117 3118 0
-3118 3138 0
-661 -3118 3119 0
-3119 3139 0
662 -3119 3120 0
-3120 3140 0
674 -3120 3121 0
-3121 3141 0
-675 -3121 0
-626 3122 0
-3122 3142 0
-627 -3122 3123 0
-3123 3143 0
631 -3123 3124 0
-3124 3144 0
-632 -3124 3125 0
-3125 3145 0
-633 -3125 3126 0
-3126 3146 0
635 -3126 3127 0
-3127 3147 0
-636 -3127 3128 0
-3128 3148 0
637 -3128 3129 0
-3129 3149 0
649 -3129 3130 0
-3130 3150 0
-650 -3130 3131 0
-3131 3151 0
-651 -3131 3132 0
-3132 3152 0
-652 -3132 3133 0
-3133 3153 0
656 -3133 3134 0
-3134 3154 0
-657 -3134 3135 0
-3135 3155 0
-658 -3135 3136 0
-3136 3156 0
660 -3136 3137 0
-3137 3157 0
-661 -3137 3138 0
-3138 3158 0
662 -3138 3139 0
-3139 3159 0
674 -3139 3140 0
-3140 3160 0
-675 -3140 3141 0
-3141 3161 0
-676 -3141 0
-627 3142 0
-3142 3162 0
631 -3142 3143 0
-3143 3163 0
-632 -3143 3144 0
-3144 3164 0
-633 -3144 3145 0
-3145 3165 0
635 -3145 3146 0
-3146 3166 0
-636 -3146 3147 0
-3147 3167 0
637 -3147 3148 0
-3148 3168 0
649 -3148 3149 0
-3149 3169 0
-650 -3149 3150 0
-3150 3170 0
-651 -3150 3151 0
-3151 3171 0
-652 -3151 3152 0
-3152 3172 0
656 -3152 3153 0
-3153 3173 0
-657 -3153 3154 0
-3154 3174 0
-658 -3154 3155 0
-3155 3175 0
660 -3155 3156 0
-3156 3176 0
-661 -3156 3157 0
-3157 3177 0
662 -3157 3158 0
-3158 3178 0
674 -3158 3159 0
-3159 3179 0
-675 -3159 3160 0
-3160 3180 0
-676 -3160 3161 0
-3161 3181 0
678 -3161 0
631 3162 0
-3162 3182 0
-632 -3162 3163 0
-3163 3183 0
-633 -3163 3164 0
-3164 3184 0
635 -3164 3165 0
-3165 3185 0
-636 -3165 3166 0
-3166 3186 0
637 -3166 3167 0
-3167 3187 0
649 -3167 3168 0
-3168 3188 0
-650 -3168 3169 0
-3169 3189 0
-651 -3169 3170 0
-3170 3190 0
-652 -3170 3171 0
-3171 3191 0
656 -3171 3172 0
-3172 3192 0
-657 -3172 3173 0
-3173 3193 0
-658 -3173 3174 0
-3174 3194 0
660 -3174 3175 0
-3175 3195 0
-661 -3175 3176 0
-3176 3196 0
662 -3176 3177 0
-3177 3197 0
674 -3177 3178 0
-3178 3198 0
-675 -3178 3179 0
-3179 3199 0
-676 -3179 3180 0
-3180 3200 0
678 -3180 3181 0
-3181 3201 0
-679 -3181 0
-632 3182 0
-3182 3202 0
-633 -3182 3183 0
-3183 3203 0
635 -3183 3184 0
-3184 3204 0
-636 -3184 3185 0
-3185 3205 0
637 -3185 3186 0
-3186 3206 0
649 -3186 3187 0
-3187 3207 0
-650 -3187 3188 0
-3188 3208 0
-651 -3188 3189 0
-3189 3209 0
-652 -3189 3190 0
-3190 3210 0
656 -3190 3191 0
-3191 3211 0
-657 -3191 3192 0
-3192 3212 0
-658 -3192 3193 0
-3193 3213 0
660 -3193 3194 0
-3194 3214 0
-661 -3194 3195 0
-3195 3215 0
662 -3195 3196 0
-3196 3216 0
674 -3196 3197 0
-3197 3217 0
-675 -3197 3198 0
-3198 3218 0
-676 -3198 3199 0
-3199 3219 0
678 -3199 3200 0
-3200 3220 0
-679 -3200 3201 0
-3201 3221 0
680 -3201 0
-633 3202 0
-3202 3222 0
635 -3202 3203 0
-3203 3223 0
-636 -3203 3204 0
-3204 3224 0
637 -3204 3205 0
-3205 3225 0
649 -3205 3206 0
-3206 3226 0
-650 -3206 3207 0
-3207 3227 0
-651 -3207 3208 0
-3208 3228 0
-652 -3208 3209 0
-3209 3229 0
656 -3209 3210 0
-3210 3230 0
-657 -3210 3211 0
-3211 3231 0
-658 -3211 3212 0
-3212 3232 0
660 -3212 3213 0
-3213 3233 0
-661 -3213 3214 0
-3214 3234 0
662 -3214 3215 0
-3215 3235 0
674 -3215 3216 0
-3216 3236 0
-675 -3216 3217 0
-3217 3237 0
-676 -3217 3218 0
-3218 3238 0
678 -3218 3219 0
-3219 3239 0
-679 -3219 3220 0
-3220 3240 0
680 -3220 3221 0
-3221 3241 0
681 -3221 0
635 3222 0
-3222 3242 0
-636 -3222 3223 0
-3223 3243 0
637 -3223 3224 0
-3224 3244 0
649 -3224 3225 0
-3225 3245 0
-650 -3225 3226 0
-3226 3246 0
-651 -3226 3227 0
-3227 3247 0
-652 -3227 3228 0
-3228 3248 0
656 -3228 3229 0
-3229 3249 0
-657 -3229 3230 0
-3230 3250 0
-658 -3230 3231 0
-3231 3251 0
660 -3231 3232 0
-3232 3252 0
-661 -3232 3233 0
-3233 3253 0
662 -3233 3234 0
-3234 3254 0
674 -3234 3235 0
-3235 3255 0
-675 -3235 3236 0
-3236 3256 0
-676 -3236 3237 0
-3237 3257 0
678 -3237 3238 0
-3238 3258 0
-679 -3238 3239 0
-3239 3259 0
680 -3239 3240 0
-3240 3260 0
681 -3240 3241 0
-3241 3261 0
-682 -3241 0
-636 3242 0
-3242 3262 0
637 -3242 3243 0
-3243 3263 0
649 -3243 3244 0
-3244 3264 0
-650 -3244 3245 0
-3245 3265 0
-651 -3245 3246 0
-3246 3266 0
-652 -3246 3247 0
-3247 3267 0
656 -3247 3248 0
-3248 3268 0
-657 -3248 3249 0
-3249 3269 0
-658 -3249 3250 0
-3250 3270 0
660 -3250 3251 0
-3251 3271 0
-661 -3251 3252 0
-3252 3272 0
662 -3252 3253 0
-3253 3273 0
674 -3253 3254 0
-3254 3274 0
-675 -3254 3255 0
-3255 3275 0
-676 -3255 3256 0
-3256 3276 0
678 -3256 3257 0
-3257 3277 0
-679 -3257 3258 0
-3258 3278 0
680 -3258 3259 0
-3259 3279 0
681 -3259 3260 0
-3260 3280 0
-682 -3260 3261 0
-3261 3281 0
683 -3261 0
637 3262 0
649 -3262 3263 0
-650 -3263 3264 0
-651 -3264 3265 0
-652 -3265 3266 0
656 -3266 3267 0
-657 -3267 3268 0
-658 -3268 3269 0
660 -3269 3270 0
-661 -3270 3271 0
662 -3271 3272 0
674 -3272 3273 0
-675 -3273 3274 0
-676 -3274 3275 0
678 -3275 3276 0
-679 -3276 3277 0
680 -3277 3278 0
681 -3278 3279 0
-682 -3279 3280 0
683 -3280 3281 0
684 -3281 0
-289 3282 0
-3282 3283 0
-293 -3282 3284 0
-3284 3285 0
-297 -3284 3286 0
-3286 3287 0
-298 -3286 3288 0
-3288 3289 0
-299 -3288 3290 0
-3290 3291 0
-303 -3290 3292 0
-3292 3293 0
-307 -3292 3294 0
-3294 3295 0
-308 -3294 3296 0
-3296 3297 0
-309 -3296 3298 0
-3298 3299 0
-313 -3298 3300 0
-3300 3301 0
-314 -3300 3302 0
-3302 3303 0
-315 -3302 3304 0
-3304 3305 0
-319 -3304 3306 0
-3306 3307 0
-320 -3306 3308 0
-3308 3309 0
-321 -3308 3310 0
-3310 3311 0
5 -3310 3312 0
-3312 3313 0
6 -3312 3314 0
-3314 3315 0
17 -3314 3316 0
-3316 3317 0
25 -3316 3318 0
-3318 3319 0
27 -3318 3320 0
-3320 3321 0
29 -3320 0
-293 3283 0
-3283 3322 0
-297 -3283 3285 0
-3285 3323 0
-298 -3285 3287 0
-3287 3324 0
-299 -3287 3289 0
-3289 3325 0
-303 -3289 3291 0
-3291 3326 0
-307 -3291 3293 0
-3293 3327 0
-308 -3293 3295 0
-3295 3328 0
-309 -3295 3297 0
-3297 3329 0
-313 -3297 3299 0
-3299 3330 0
-314 -3299 3301 0
-3301 3331 0
-315 -3301 3303 0
-3303 3332 0
-319 -3303 3305 0
-3305 3333 0
-320 -3305 3307 0
-3307 3334 0
-321 -3307 3309 0
-3309 3335 0
5 -3309 3311 0
-3311 3336 0
6 -3311 3313 0
-3313 3337 0
17 -3313 3315 0
-3315 3338 0
25 -3315 3317 0
-3317 3339 0
27 -3317 3319 0
-3319 3340 0
29 -3319 3321 0
-3321 3341 0
-604 -3321 0
-297 3322 0
-3322 3342 0
-298 -3322 3323 0
-3323 3343 0
-299 -3323 3324 0
-3324 3344 0
-303 -3324 3325 0
-3325 3345 0
-307 -3325 3326 0
-3326 3346 0
-308 -3326 3327 0
-3327 3347 0
-309 -3327 3328 0
-3328 3348 0
-313 -3328 3329 0
-3329 3349 0
-314 -3329 3330 0
-3330 3350 0
-315 -3330 3331 0
-3331 3351 0
-319 -3331 3332 0
-3332 3352 0
-320 -3332 3333 0
-3333 3353 0
-321 -3333 3334 0
-3334 3354 0
5 -3334 3335 0
-3335 3355 0
6 -3335 3336 0
-3336 3356 0
17 -3336 3337 0
-3337 3357 0
25 -3337 3338 0
-3338 3358 0
27 -3338 3339 0
-3339 3359 0
29 -3339 3340 0
-3340 3360 0
-604 -3340 3341 0
-3341 3361 0
-605 -3341 0
-298 3342 0
-3342 3362 0
-299 -3342 3343 0
-3343 3363 0
-303 -3343 3344 0
-3344 3364 0
-307 -3344 3345 0
-3345 3365 0
-308 -3345 3346 0
-3346 3366 0
-309 -3346 3347 0
-3347 3367 0
-313 -3347 3348 0
-3348 3368 0
-314 -3348 3349 0
-3349 3369 0
-315 -3349 3350 0
-3350 3370 0
-319 -3350 3351 0
-3351 3371 0
-320 -3351 3352 0
-3352 3372 0
-321 -3352 3353 0
-3353 3373 0
5 -3353 3354 0
-3354 3374 0
6 -3354 3355 0
-3355 3375 0
17 -3355 3356 0
-3356 3376 0
25 -3356 3357 0
-3357 3377 0
27 -3357 3358 0
-3358 3378 0
29 -3358 3359 0
-3359 3379 0
-604 -3359 3360 0
-3360 3380 0
-605 -3360 3361 0
-3361 3381 0
-606 -3361 0
-299 3362 0
-3362 3382 0
-303 -3362 3363 0
-3363 3383 0
-307 -3363 3364 0
-3364 3384 0
-308 -3364 3365 0
-3365 3385 0
-309 -3365 3366 0
-3366 3386 0
-313 -3366 3367 0
-3367 3387 0
-314 -3367 3368 0
-3368 3388 0
-315 -3368 3369 0
-3369 3389 0
-319 -3369 3370 0
-3370 3390 0
-320 -3370 3371 0
-3371 3391 0
-321 -3371 3372 0
-3372 3392 0
5 -3372 3373 0
-3373 3393 0
6 -3373 3374 0
-3374 3394 0
17 -3374 3375 0
-3375 3395 0
25 -3375 3376 0
-3376 3396 0
27 -3376 3377 0
-3377 3397 0
29 -3377 3378 0
-3378 3398 0
-604 -3378 3379 0
-3379 3399 0
-605 -3379 3380 0
-3380 3400 0
-606 -3380 3381 0
-3381 3401 0
610 -3381 0
-303 3382 0
-3382 3402 0
-307 -3382 3383 0
-3383 3403 0
-308 -3383 3384 0
-3384 3404 0
-309 -3384 3385 0
-3385 3405 0
-313 -3385 3386 0
-3386 3406 0
-314 -3386 3387 0
-3387 3407 0
-315 -3387 3388 0
-3388 3408 0
-319 -3388 3389 0
-3389 3409 0
-320 -3389 3390 0
-3390 3410 0
-321 -3390 3391 0
-3391 3411 0
5 -3391 3392 0
-3392 3412 0
6 -3392 3393 0
-3393 3413 0
17 -3393 3394 0
-3394 3414 0
25 -3394 3395 0
-3395 3415 0
27 -3395 3396 0
-3396 3416 0
29 -3396 3397 0
-3397 3417 0
-604 -3397 3398 0
-3398 3418 0
-605 -3398 3399 0
-3399 3419 0
-606 -3399 3400 0
-3400 3420 0
610 -3400 3401 0
-3401 3421 0
-611 -3401 0
-307 3402 0
-3402 3422 0
-308 -3402 3403 0
-3403 3423 0
-309 -3403 3404 0
-3404 3424 0
-313 -3404 3405 0
-3405 3425 0
-314 -3405 3406 0
-3406 3426 0
-315 -3406 3407 0
-3407 3427 0
-319 -3407 3408 0
-3408 3428 0
-320 -3408 3409 0
-3409 3429 0
-321 -3409 3410 0
-3410 3430 0
5 -3410 3411 0
-3411 3431 0
6 -3411 3412 0
-3412 3432 0
17 -3412 3413 0
-3413 3433 0
25 -3413 3414 0
-3414 3434 0
27 -3414 3415 0
-3415 3435 0
29 -3415 3416 0
-3416 3436 0
-604 -3416 3417 0
-3417 3437 0
-605 -3417 3418 0
-3418 3438 0
-606 -3418 3419 0
-3419 3439 0
610 -3419 3420 0
-3420 3440 0
-611 -3420 3421 0
-3421 3441 0
-612 -3421 0
-308 3422 0
-3422 3442 0
-309 -3422 3423 0
-3423 3443 0
-313 -3423 3424 0
-3424 3444 0
-314 -3424 3425 0
-3425 3445 0
-315 -3425 3426 0
-3426 3446 0
-319 -3426 3427 0
-3427 3447 0
-320 -3427 3428 0
-3428 3448 0
-321 -3428 3429 0
-3429 3449 0
5 -3429 3430 0
-3430 3450 0
6 -3430 3431 0
-3431 3451 0
17 -3431 3432 0
-3432 3452 0
25 -3432 3433 0
-3433 3453 0
27 -3433 3434 0
-3434 3454 0
29 -3434 3435 0
-3435 3455 0
-604 -3435 3436 0
-3436 3456 0
-605 -3436 3437 0
-3437 3457 0
-606 -3437 3438 0
-3438 3458 0
610 -3438 3439 0
-3439 3459 0
-611 -3439 3440 0
-3440 3460 0
-612 -3440 3441 0
-3441 3461 0
-613 -3441 0
-309 3442 0
-3442 3462 0
-313 -3442 3443 0
-3443 3463 0
-314 -3443 3444 0
-3444 3464 0
-315 -3444 3445 0
-3445 3465 0
-319 -3445 3446 0
-3446 3466 0
-320 -3446 3447 0
-3447 3467 0
-321 -3447 3448 0
-3448 3468 0
5 -3448 3449 0
-3449 3469 0
6 -3449 3450 0
-3450 3470 0
17 -3450 3451 0
-3451 3471 0
25 -3451 3452 0
-3452 3472 0
27 -3452 3453 0
-3453 3473 0
29 -3453 3454 0
-3454 3474 0
-604 -3454 3455 0
-3455 3475 0
-605 -3455 3456 0
-3456 3476 0
-606 -3456 3457 0
-3457 3477 0
610 -3457 3458 0
-3458 3478 0
-611 -3458 3459 0
-3459 3479 0
-612 -3459 3460 0
-3460 3480 0
-613 -3460 3461 0
-3461 3481 0
624 -3461 0
-313 3462 0
-3462 3482 0
-314 -3462 3463 0
-3463 3483 0
-315 -3463 3464 0
-3464 3484 0
-319 -3464 3465 0
-3465 3485 0
-320 -3465 3466 0
-3466 3486 0
-321 -3466 3467 0
-3467 3487 0
5 -3467 3468 0
-3468 3488 0
6 -3468 3469 0
-3469 3489 0
17 -3469 3470 0
-3470 3490 0
25 -3470 3471 0
-3471 3491 0
27 -3471 3472 0
-3472 3492 0
29 -3472 3473 0
-3473 3493 0
-604 -3473 3474 0
-3474 3494 0
-605 -3474 3475 0
-3475 3495 0
-606 -3475 3476 0
-3476 3496 0
610 -3476 3477 0
-3477 3497 0
-611 -3477 3478 0
-3478 3498 0
-612 -3478 3479 0
-3479 3499 0
-613 -3479 3480 0
-3480 3500 0
624 -3480 3481 0
-3481 3501 0
-625 -3481 0
-314 3482 0
-3482 3502 0
-315 -3482 3483 0
-3483 3503 0
-319 -3483 3484 0
-3484 3504 0
-320 -3484 3485 0
-3485 3505 0
-321 -3485 3486 0
-3486 3506 0
5 -3486 3487 0
-3487 3507 0
6 -3487 3488 0
-3488 3508 0
17 -3488 3489 0
-3489 3509 0
25 -3489 3490 0
-3490 3510 0
27 -3490 3491 0
-3491 3511 0
29 -3491 3492 0
-3492 3512 0
-604 -3492 3493 0
-3493 3513 0
-605 -3493 3494 0
-3494 3514 0
-606 -3494 3495 0
-3495 3515 0
610 -3495 3496 0
-3496 3516 0
-611 -3496 3497 0
-3497 3517 0
-612 -3497 3498 0
-3498 3518 0
-613 -3498 3499 0
-3499 3519 0
624 -3499 3500 0
-3500 3520 0
-625 -3500 3501 0
-3501 3521 0
-626 -3501 0
-315 3502 0
-3502 3522 0
-319 -3502 3503 0
-3503 3523 0
-320 -3503 3504 0
-3504 3524 0
-321 -3504 3505 0
-3505 3525 0
5 -3505 3506 0
-3506 3526 0
6 -3506 3507 0
-3507 3527 0
17 -3507 3508 0
-3508 3528 0
25 -3508 3509 0
-3509 3529 0
27 -3509 3510 0
-3510 3530 0
29 -3510 3511 0
-3511 3531 0
-604 -3511 3512 0
-3512 3532 0
-605 -3512 3513 0
-3513 3533 0
-606 -3513 3514 0
-3514 3534 0
610 -3514 3515 0
-3515 3535 0
-611 -3515 3516 0
-3516 3536 0
-612 -3516 3517 0
-3517 3537 0
-613 -3517 3518 0
-3518 3538 0
624 -3518 3519 0
-3519 3539 0
-625 -3519 3520 0
-3520 3540 0
-626 -3520 3521 0
-3521 3541 0
-627 -3521 0
-319 3522 0
-3522 3542 0
-320 -3522 3523 0
-3523 3543 0
-321 -3523 3524 0
-3524 3544 0
5 -3524 3525 0
-3525 3545 0
6 -3525 3526 0
-3526 3546 0
17 -3526 3527 0
-3527 3547 0
25 -3527 3528 0
-3528 3548 0
27 -3528 3529 0
-3529 3549 0
29 -3529 3530 0
-3530 3550 0
-604 -3530 3531 0
-3531 3551 0
-605 -3531 3532 0
-3532 3552 0
-606 -3532 3533 0
-3533 3553 0
610 -3533 3534 0
-3534 3554 0
-611 -3534 3535 0
-3535 3555 0
-612 -3535 3536 0
-3536 3556 0
-613 -3536 3537 0
-3537 3557 0
624 -3537 3538 0
-3538 3558 0
-625 -3538 3539 0
-3539 3559 0
-626 -3539 3540 0
-3540 3560 0
-627 -3540 3541 0
-3541 3561 0
638 -3541 0
-320 3542 0
-3542 3562 0
-321 -3542 3543 0
-3543 3563 0
5 -3543 3544 0
-3544 3564 0
6 -3544 3545 0
-3545 3565 0
17 -3545 3546 0
-3546 3566 0
25 -3546 3547 0
-3547 3567 0
27 -3547 3548 0
-3548 3568 0
29 -3548 3549 0
-3549 3569 0
-604 -3549 3550 0
-3550 3570 0
-605 -3550 3551 0
-3551 3571 0
-606 -3551 3552 0
-3552 3572 0
610 -3552 3553 0
-3553 3573 0
-611 -3553 3554 0
-3554 3574 0
-612 -3554 3555 0
-3555 3575 0
-613 -3555 3556 0
-3556 3576 0
624 -3556 3557 0
-3557 3577 0
-625 -3557 3558 0
-3558 3578 0
-626 -3558 3559 0
-3559 3579 0
-627 -3559 3560 0
-3560 3580 0
638 -3560 3561 0
-3561 3581 0
-639 -3561 0
-321 3562 0
-3562 3582 0
5 -3562 3563 0
-3563 3583 0
6 -3563 3564 0
-3564 3584 0
17 -3564 3565 0
-3565 3585 0
25 -3565 3566 0
-3566 3586 0
27 -3566 3567 0
-3567 3587 0
29 -3567 3568 0
-3568 3588 0
-604 -3568 3569 0
-3569 3589 0
-605 -3569 3570 0
-3570 3590 0
-606 -3570 3571 0
-3571 3591 0
610 -3571 3572 0
-3572 3592 0
-611 -3572 3573 0
-3573 3593 0
-612 -3573 3574 0
-3574 3594 0
-613 -3574 3575 0
-3575 3595 0
624 -3575 3576 0
-3576 3596 0
-625 -3576 3577 0
-3577 3597 0
-626 -3577 3578 0
-3578 3598 0
-627 -3578 3579 0
-3579 3599 0
638 -3579 3580 0
-3580 3600 0
-639 -3580 3581 0
-3581 3601 0
-640 -3581 0
5 3582 0
-3582 3602 0
6 -3582 3583 0
-3583 3603 0
17 -3583 3584 0
-3584 3604 0
25 -3584 3585 0
-3585 3605 0
27 -3585 3586 0
-3586 3606 0
29 -3586 3587 0
-3587 3607 0
-604 -3587 3588 0
-3588 3608 0
-605 -3588 3589 0
-3589 3609 0
-606 -3589 3590 0
-3590 3610 0
610 -3590 3591 0
-3591 3611 0
-611 -3591 3592 0
-3592 3612 0
-612 -3592 3593 0
-3593 3613 0
-613 -3593 3594 0
-3594 3614 0
624 -3594 3595 0
-3595 3615 0
-625 -3595 3596 0
-3596 3616 0
-626 -3596 3597 0
-3597 3617 0
-627 -3597 3598 0
-3598 3618 0
638 -3598 3599 0
-3599 3619 0
-639 -3599 3600 0
-3600 3620 0
-640 -3600 3601 0
-3601 3621 0
642 -3601 0
6 3602 0
-3602 3622 0
17 -3602 3603 0
-3603 3623 0
25 -3603 3604 0
-3604 3624 0
27 -3604 3605 0
-3605 3625 0
29 -3605 3606 0
-3606 3626 0
-604 -3606 3607 0
-3607 3627 0
-605 -3607 3608 0
-3608 3628 0
-606 -3608 3609 0
-3609 3629 0
610 -3609 3610 0
-3610 3630 0
-611 -3610 3611 0
-3611 3631 0
-612 -3611 3612 0
-3612 3632 0
-613 -3612 3613 0
-3613 3633 0
624 -3613 3614 0
-3614 3634 0
-625 -3614 3615 0
-3615 3635 0
-626 -3615 3616 0
-3616 3636 0
-627 -3616 3617 0
-3617 3637 0
638 -3617 3618 0
-3618 3638 0
-639 -3618 3619 0
-3619 3639 0
-640 -3619 3620 0
-3620 3640 0
642 -3620 3621 0
-3621 3641 0
-643 -3621 0
17 3622 0
-3622 3642 0
25 -3622 3623 0
-3623 3643 0
27 -3623 3624 0
-3624 3644 0
29 -3624 3625 0
-3625 3645 0
-604 -3625 3626 0
-3626 3646 0
-605 -3626 3627 0
-3627 3647 0
-606 -3627 3628 0
-3628 3648 0
610 -3628 3629 0
-3629 3649 0
-611 -3629 3630 0
-3630 3650 0
-612 -3630 3631 0
-3631 3651 0
-613 -3631 3632 0
-3632 3652 0
624 -3632 3633 0
-3633 3653 0
-625 -3633 3634 0
-3634 3654 0
-626 -3634 3635 0
-3635 3655 0
-627 -3635 3636 0
-3636 3656 0
638 -3636 3637 0
-3637 3657 0
-639 -3637 3638 0
-3638 3658 0
-640 -3638 3639 0
-3639 3659 0
642 -3639 3640 0
-3640 3660 0
-643 -3640 3641 0
-3641 3661 0
644 -3641 0
25 3642 0
-3642 3662 0
27 -3642 3643 0
-3643 3663 0
29 -3643 3644 0
-3644 3664 0
-604 -3644 3645 0
-3645 3665 0
-605 -3645 3646 0
-3646 3666 0
-606 -3646 3647 0
-3647 3667 0
610 -3647 3648 0
-3648 3668 0
-611 -3648 3649 0
-3649 3669 0
-612 -3649 3650 0
-3650 3670 0
-613 -3650 3651 0
-3651 3671 0
624 -3651 3652 0
-3652 3672 0
-625 -3652 3653 0
-3653 3673 0
-626 -3653 3654 0
-3654 3674 0
-627 -3654 3655 0
-3655 3675 0
638 -3655 3656 0
-3656 3676 0
-639 -3656 3657 0
-3657 3677 0
-640 -3657 3658 0
-3658 3678 0
642 -3658 3659 0
-3659 3679 0
-643 -3659 3660 0
-3660 3680 0
644 -3660 3661 0
-3661 3681 0
649 -3661 0
27 3662 0
-3662 3682 0
29 -3662 3663 0
-3663 3683 0
-604 -3663 3664 0
-3664 3684 0
-605 -3664 3665 0
-3665 3685 0
-606 -3665 3666 0
-3666 3686 0
610 -3666 3667 0
-3667 3687 0
-611 -3667 3668 0
-3668 3688 0
-612 -3668 3669 0
-3669 3689 0
-613 -3669 3670 0
-3670 3690 0
624 -3670 3671 0
-3671 3691 0
-625 -3671 3672 0
-3672 3692 0
-626 -3672 3673 0
-3673 3693 0
-627 -3673 3674 0
-3674 3694 0
638 -3674 3675 0
-3675 3695 0
-639 -3675 3676 0
-3676 3696 0
-640 -3676 3677 0
-3677 3697 0
642 -3677 3678 0
-3678 3698 0
-643 -3678 3679 0
-3679 3699 0
644 -3679 3680 0
-3680 3700 0
649 -3680 3681 0
-3681 3701 0
-650 -3681 0
29 3682 0
-3682 3702 0
-604 -3682 3683 0
-3683 3703 0
-605 -3683 3684 0
-3684 3704 0
-606 -3684 3685 0
-3685 3705 0
610 -3685 3686 0
-3686 3706 0
-611 -3686 3687 0
-3687 3707 0
-612 -3687 3688 0
-3688 3708 0
-613 -3688 3689 0
-3689 3709 0
624 -3689 3690 0
-3690 3710 0
-625 -3690 3691 0
-3691 3711 0
-626 -3691 3692 0
-3692 3712 0
-627 -3692 3693 0
-3693 3713 0
638 -3693 3694 0
-3694 3714 0
-639 -3694 3695 0
-3695 3715 0
-640 -3695 3696 0
-3696 3716 0
642 -3696 3697 0
-3697 3717 0
-643 -3697 3698 0
-3698 3718 0
644 -3698 3699 0
-3699 3719 0
649 -3699 3700 0
-3700 3720 0
-650 -3700 3701 0
-3701 3721 0
-651 -3701 0
-604 3702 0
-3702 3722 0
-605 -3702 3703 0
-3703 3723 0
-606 -3703 3704 0
-3704 3724 0
610 -3704 3705 0
-3705 3725 0
-611 -3705 3706 0
-3706 3726 0
-612 -3706 3707 0
-3707 3727 0
-613 -3707 3708 0
-3708 3728 0
624 -3708 3709 0
-3709 3729 0
-625 -3709 3710 0
-3710 3730 0
-626 -3710 3711 0
-3711 3731 0
-627 -3711 3712 0
-3712 3732 0
638 -3712 3713 0
-3713 3733 0
-639 -3713 3714 0
-3714 3734 0
-640 -3714 3715 0
-3715 3735 0
642 -3715 3716 0
-3716 3736 0
-643 -3716 3717 0
-3717 3737 0
644 -3717 3718 0
-3718 3738 0
649 -3718 3719 0
-3719 3739 0
-650 -3719 3720 0
-3720 3740 0
-651 -3720 3721 0
-3721 3741 0
-652 -3721 0
-605 3722 0
-3722 3742 0
-606 -3722 3723 0
-3723 3743 0
610 -3723 3724 0
-3724 3744 0
-611 -3724 3725 0
-3725 3745 0
-612 -3725 3726 0
-3726 3746 0
-613 -3726 3727 0
-3727 3747 0
624 -3727 3728 0
-3728 3748 0
-625 -3728 3729 0
-3729 3749 0
-626 -3729 3730 0
-3730 3750 0
-627 -3730 3731 0
-3731 3751 0
638 -3731 3732 0
-3732 3752 0
-639 -3732 3733 0
-3733 3753 0
-640 -3733 3734 0
-3734 3754 0
642 -3734 3735 0
-3735 3755 0
-643 -3735 3736 0
-3736 3756 0
644 -3736 3737 0
-3737 3757 0
649 -3737 3738 0
-3738 3758 0
-650 -3738 3739 0
-3739 3759 0
-651 -3739 3740 0
-3740 3760 0
-652 -3740 3741 0
-3741 3761 0
663 -3741 0
-606 3742 0
-3742 3762 0
610 -3742 3743 0
-3743 3763 0
-611 -3743 3744 0
-3744 3764 0
-612 -3744 3745 0
-3745 3765 0
-613 -3745 3746 0
-3746 3766 0
624 -3746 3747 0
-3747 3767 0
-625 -3747 3748 0
-3748 3768 0
-626 -3748 3749 0
-3749 3769 0
-627 -3749 3750 0
-3750 3770 0
638 -3750 3751 0
-3751 3771 0
-639 -3751 3752 0
-3752 3772 0
-640 -3752 3753 0
-3753 3773 0
642 -3753 3754 0
-3754 3774 0
-643 -3754 3755 0
-3755 3775 0
644 -3755 3756 0
-3756 3776 0
649 -3756 3757 0
-3757 3777 0
-650 -3757 3758 0
-3758 3778 0
-651 -3758 3759 0
-3759 3779 0
-652 -3759 3760 0
-3760 3780 0
663 -3760 3761 0
-3761 3781 0
-664 -3761 0
610 3762 0
-3762 3782 0
-611 -3762 3763 0
-3763 3783 0
-612 -3763 3764 0
-3764 3784 0
-613 -3764 3765 0
-3765 3785 0
624 -3765 3766 0
-3766 3786 0
-625 -3766 3767 0
-3767 3787 0
-626 -3767 3768 0
-3768 3788 0
-627 -3768 3769 0
-3769 3789 0
638 -3769 3770 0
-3770 3790 0
-639 -3770 3771 0
-3771 3791 0
-640 -3771 3772 0
-3772 3792 0
642 -3772 3773 0
-3773 3793 0
-643 -3773 3774 0
-3774 3794 0
644 -3774 3775 0
-3775 3795 0
649 -3775 3776 0
-3776 3796 0
-650 -3776 3777 0
-3777 3797 0
-651 -3777 3778 0
-3778 3798 0
-652 -3778 3779 0
-3779 3799 0
663 -3779 3780 0
-3780 3800 0
-664 -3780 3781 0
-3781 3801 0
-665 -3781 0
-611 3782 0
-3782 3802 0
-612 -3782 3783 0
-3783 3803 0
-613 -3783 3784 0
-3784 3804 0
624 -3784 3785 0
-3785 3805 0
-625 -3785 3786 0
-3786 3806 0
-626 -3786 3787 0
-3787 3807 0
-627 -3787 3788 0
-3788 3808 0
638 -3788 3789 0
-3789 3809 0
-639 -3789 3790 0
-3790 3810 0
-640 -3790 3791 0
-3791 3811 0
642 -3791 3792 0
-3792 3812 0
-643 -3792 3793 0
-3793 3813 0
644 -3793 3794 0
-3794 3814 0
649 -3794 3795 0
-3795 3815 0
-650 -3795 3796 0
-3796 3816 0
-651 -3796 3797 0
-3797 3817 0
-652 -3797 3798 0
-3798 3818 0
663 -3798 3799 0
-3799 3819 0
-664 -3799 3800 0
-3800 3820 0
-665 -3800 3801 0
-3801 3821 0
667 -3801 0
-612 3802 0
-3802 3822 0
-613 -3802 3803 0
-3803 3823 0
624 -3803 3804 0
-3804 3824 0
-625 -3804 3805 0
-3805 3825 0
-626 -3805 3806 0
-3806 3826 0
-627 -3806 3807 0
-3807 3827 0
638 -3807 3808 0
-3808 3828 0
-639 -3808 3809 0
-3809 3829 0
-640 -3809 3810 0
-3810 3830 0
642 -3810 3811 0
-3811 3831 0
-643 -3811 3812 0
-3812 3832 0
644 -3812 3813 0
-3813 3833 0
649 -3813 3814 0
-3814 3834 0
-650 -3814 3815 0
-3815 3835 0
-651 -3815 3816 0
-3816 3836 0
-652 -3816 3817 0
-3817 3837 0
663 -3817 3818 0
-3818 3838 0
-664 -3818 3819 0
-3819 3839 0
-665 -3819 3820 0
-3820 3840 0
667 -3820 3821 0
-3821 3841 0
-668 -3821 0
-613 3822 0
-3822 3842 0
624 -3822 3823 0
-3823 3843 0
-625 -3823 3824 0
-3824 3844 0
-626 -3824 3825 0
-3825 3845 0
-627 -3825 3826 0
-3826 3846 0
638 -3826 3827 0
-3827 3847 0
-639 -3827 3828 0
-3828 3848 0
-640 -3828 3829 0
-3829 3849 0
642 -3829 3830 0
-3830 3850 0
-643 -3830 3831 0
-3831 3851 0
644 -3831 3832 0
-3832 3852 0
649 -3832 3833 0
-3833 3853 0
-650 -3833 3834 0
-3834 3854 0
-651 -3834 3835 0
-3835 3855 0
-652 -3835 3836 0
-3836 3856 0
663 -3836 3837 0
-3837 3857 0
-664 -3837 3838 0
-3838 3858 0
-665 -3838 3839 0
-3839 3859 0
667 -3839 3840 0
-3840 3860 0
-668 -3840 3841 0
-3841 3861 0
669 -3841 0
624 3842 0
-3842 3862 0
-625 -3842 3843 0
-3843 3863 0
-626 -3843 3844 0
-3844 3864 0
-627 -3844 3845 0
-3845 3865 0
638 -3845 3846 0
-3846 3866 0
-639 -3846 3847 0
-3847 3867 0
-640 -3847 3848 0
-3848 3868 0
642 -3848 3849 0
-3849 3869 0
-643 -3849 3850 0
-3850 3870 0
644 -3850 3851 0
-3851 3871 0
649 -3851 3852 0
-3852 3872 0
-650 -3852 3853 0
-3853 3873 0
-651 -3853 3854 0
-3854 3874 0
-652 -3854 3855 0
-3855 3875 0
663 -3855 3856 0
-3856 3876 0
-664 -3856 3857 0
-3857 3877 0
-665 -3857 3858 0
-3858 3878 0
667 -3858 3859 0
-3859 3879 0
-668 -3859 3860 0
-3860 3880 0
669 -3860 3861 0
-3861 3881 0
674 -3861 0
-625 3862 0
-3862 3882 0
-626 -3862 3863 0
-3863 3883 0
-627 -3863 3864 0
-3864 3884 0
638 -3864 3865 0
-3865 3885 0
-639 -3865 3866 0
-3866 3886 0
-640 -3866 3867 0
-3867 3887 0
642 -3867 3868 0
-3868 3888 0
-643 -3868 3869 0
-3869 3889 0
644 -3869 3870 0
-3870 3890 0
649 -3870 3871 0
-3871 3891 0
-650 -3871 3872 0
-3872 3892 0
-651 -3872 3873 0
-3873 3893 0
-652 -3873 3874 0
-3874 3894 0
663 -3874 3875 0
-3875 3895 0
-664 -3875 3876 0
-3876 3896 0
-665 -3876 3877 0
-3877 3897 0
667 -3877 3878 0
-3878 3898 0
-668 -3878 3879 0
-3879 3899 0
669 -3879 3880 0
-3880 3900 0
674 -3880 3881 0
-3881 3901 0
-675 -3881 0
-626 3882 0
-3882 3902 0
-627 -3882 3883 0
-3883 3903 0
638 -3883 3884 0
-3884 3904 0
-639 -3884 3885 0
-3885 3905 0
-640 -3885 3886 0
-3886 3906 0
642 -3886 3887 0
-3887 3907 0
-643 -3887 3888 0
-3888 3908 0
644 -3888 3889 0
-3889 3909 0
649 -3889 3890 0
-3890 3910 0
-650 -3890 3891 0
-3891 3911 0
-651 -3891 3892 0
-3892 3912 0
-652 -3892 3893 0
-3893 3913 0
663 -3893 3894 0
-3894 3914 0
-664 -3894 3895 0
-3895 3915 0
-665 -3895 3896 0
-3896 3916 0
667 -3896 3897 0
-3897 3917 0
-668 -3897 3898 0
-3898 3918 0
669 -3898 3899 0
-3899 3919 0
674 -3899 3900 0
-3900 3920 0
-675 -3900 3901 0
-3901 3921 0
-676 -3901 0
-627 3902 0
-3902 3922 0
638 -3902 3903 0
-3903 3923 0
-639 -3903 3904 0
-3904 3924 0
-640 -3904 3905 0
-3905 3925 0
642 -3905 3906 0
-3906 3926 0
-643 -3906 3907 0
-3907 3927 0
644 -3907 3908 0
-3908 3928 0
649 -3908 3909 0
-3909 3929 0
-650 -3909 3910 0
-3910 3930 0
-651 -3910 3911 0
-3911 3931 0
-652 -3911 3912 0
-3912 3932 0
663 -3912 3913 0
-3913 3933 0
-664 -3913 3914 0
-3914 3934 0
-665 -3914 3915 0
-3915 3935 0
667 -3915 3916 0
-3916 3936 0
-668 -3916 3917 0
-3917 3937 0
669 -3917 3918 0
-3918 3938 0
674 -3918 3919 0
-3919 3939 0
-675 -3919 3920 0
-3920 3940 0
-676 -3920 3921 0
-3921 3941 0
678 -3921 0
638 3922 0
-3922 3942 0
-639 -3922 3923 0
-3923 3943 0
-640 -3923 3924 0
-3924 3944 0
642 -3924 3925 0
-3925 3945 0
-643 -3925 3926 0
-3926 3946 0
644 -3926 3927 0
-3927 3947 0
649 -3927 3928 0
-3928 3948 0
-650 -3928 3929 0
-3929 3949 0
-651 -3929 3930 0
-3930 3950 0
-652 -3930 3931 0
-3931 3951 0
663 -3931 3932 0
-3932 3952 0
-664 -3932 3933 0
-3933 3953 0
-665 -3933 3934 0
-3934 3954 0
667 -3934 3935 0
-3935 3955 0
-668 -3935 3936 0
-3936 3956 0
669 -3936 3937 0
-3937 3957 0
674 -3937 3938 0
-3938 3958 0
-675 -3938 3939 0
-3939 3959 0
-676 -3939 3940 0
-3940 3960 0
678 -3940 3941 0
-3941 3961 0
-679 -3941 0
-639 3942 0
-3942 3962 0
-640 -3942 3943 0
-3943 3963 0
642 -3943 3944 0
-3944 3964 0
-643 -3944 3945 0
-3945 3965 0
644 -3945 3946 0
-3946 3966 0
649 -3946 3947 0
-3947 3967 0
-650 -3947 3948 0
-3948 3968 0
-651 -3948 3949 0
-3949 3969 0
-652 -3949 3950 0
-3950 3970 0
663 -3950 3951 0
-3951 3971 0
-664 -3951 3952 0
-3952 3972 0
-665 -3952 3953 0
-3953 3973 0
667 -3953 3954 0
-3954 3974 0
-668 -3954 3955 0
-3955 3975 0
669 -3955 3956 0
-3956 3976 0
674 -3956 3957 0
-3957 3977 0
-675 -3957 3958 0
-3958 3978 0
-676 -3958 3959 0
-3959 3979 0
678 -3959 3960 0
-3960 3980 0
-679 -3960 3961 0
-3961 3981 0
680 -3961 0
-640 3962 0
-3962 3982 0
642 -3962 3963 0
-3963 3983 0
-643 -3963 3964 0
-3964 3984 0
644 -3964 3965 0
-3965 3985 0
649 -3965 3966 0
-3966 3986 0
-650 -3966 3967 0
-3967 3987 0
-651 -3967 3968 0
-3968 3988 0
-652 -3968 3969 0
-3969 3989 0
663 -3969 3970 0
-3970 3990 0
-664 -3970 3971 0
-3971 3991 0
-665 -3971 3972 0
-3972 3992 0
667 -3972 3973 0
-3973 3993 0
-668 -3973 3974 0
-3974 3994 0
669 -3974 3975 0
-3975 3995 0
674 -3975 3976 0
-3976 3996 0
-675 -3976 3977 0
-3977 3997 0
-676 -3977 3978 0
-3978 3998 0
678 -3978 3979 0
-3979 3999 0
-679 -3979 3980 0
-3980 4000 0
680 -3980 3981 0
-3981 4001 0
685 -3981 0
642 3982 0
-3982 4002 0
-643 -3982 3983 0
-3983 4003 0
644 -3983 3984 0
-3984 4004 0
649 -3984 3985 0
-3985 4005 0
-650 -3985 3986 0
-3986 4006 0
-651 -3986 3987 0
-3987 4007 0
-652 -3987 3988 0
-3988 4008 0
663 -3988 3989 0
-3989 4009 0
-664 -3989 3990 0
-3990 4010 0
-665 -3990 3991 0
-3991 4011 0
667 -3991 3992 0
-3992 4012 0
-668 -3992 3993 0
-3993 4013 0
669 -3993 3994 0
-3994 4014 0
674 -3994 3995 0
-3995 4015 0
-675 -3995 3996 0
-3996 4016 0
-676 -3996 3997 0
-3997 4017 0
678 -3997 3998 0
-3998 4018 0
-679 -3998 3999 0
-3999 4019 0
680 -3999 4000 0
-4000 4020 0
685 -4000 4001 0
-4001 4021 0
-686 -4001 0
-643 4002 0
-4002 4022 0
644 -4002 4003 0
-4003 4023 0
649 -4003 4004 0
-4004 4024 0
-650 -4004 4005 0
-4005 4025 0
-651 -4005 4006 0
-4006 4026 0
-652 -4006 4007 0
-4007 4027 0
663 -4007 4008 0
-4008 4028 0
-664 -4008 4009 0
-4009 4029 0
-665 -4009 4010 0
-4010 4030 0
667 -4010 4011 0
-4011 4031 0
-668 -4011 4012 0
-4012 4032 0
669 -4012 4013 0
-4013 4033 0
674 -4013 4014 0
-4014 4034 0
-675 -4014 4015 0
-4015 4035 0
-676 -4015 4016 0
-4016 4036 0
678 -4016 4017 0
-4017 4037 0
-679 -4017 4018 0
-4018 4038 0
680 -4018 4019 0
-4019 4039 0
685 -4019 4020 0
-4020 4040 0
-686 -4020 4021 0
-4021 4041 0
687 -4021 0
644 4022 0
649 -4022 4023 0
-650 -4023 4024 0
-651 -4024 4025 0
-652 -4025 4026 0
663 -4026 4027 0
-664 -4027 4028 0
-665 -4028 4029 0
667 -4029 4030 0
-668 -4030 4031 0
669 -4031 4032 0
674 -4032 4033 0
-675 -4033 4034 0
-676 -4034 4035 0
678 -4035 4036 0
-679 -4036 4037 0
680 -4037 4038 0
685 -4038 4039 0
-686 -4039 4040 0
687 -4040 4041 0
688 -4041 0
-290 4042 0
-4042 4043 0
-294 -4042 4044 0
-4044 4045 0
-297 -4044 4046 0
-4046 4047 0
-300 -4046 4048 0
-4048 4049 0
-301 -4048 4050 0
-4050 4051 0
-304 -4050 4052 0
-4052 4053 0
-307 -4052 4054 0
-4054 4055 0
-310 -4054 4056 0
-4056 4057 0
-311 -4056 4058 0
-4058 4059 0
-313 -4058 4060 0
-4060 4061 0
-316 -4060 4062 0
-4062 4063 0
-317 -4062 4064 0
-4064 4065 0
-319 -4064 4066 0
-4066 4067 0
-320 -4066 4068 0
-4068 4069 0
-322 -4068 4070 0
-4070 4071 0
8 -4070 4072 0
-4072 4073 0
9 -4072 4074 0
-4074 4075 0
19 -4074 4076 0
-4076 4077 0
25 -4076 4078 0
-4078 4079 0
31 -4078 4080 0
-4080 4081 0
33 -4080 0
-294 4043 0
-4043 4082 0
-297 -4043 4045 0
-4045 4083 0
-300 -4045 4047 0
-4047 4084 0
-301 -4047 4049 0
-4049 4085 0
-304 -4049 4051 0
-4051 4086 0
-307 -4051 4053 0
-4053 4087 0
-310 -4053 4055 0
-4055 4088 0
-311 -4055 4057 0
-4057 4089 0
-313 -4057 4059 0
-4059 4090 0
-316 -4059 4061 0
-4061 4091 0
-317 -4061 4063 0
-4063 4092 0
-319 -4063 4065 0
-4065 4093 0
-320 -4065 4067 0
-4067 4094 0
-322 -4067 4069 0
-4069 4095 0
8 -4069 4071 0
-4071 4096 0
9 -4071 4073 0
-4073 4097 0
19 -4073 4075 0
-4075 4098 0
25 -4075 4077 0
-4077 4099 0
31 -4077 4079 0
-4079 4100 0
33 -4079 4081 0
-4081 4101 0
-604 -4081 0
-297 4082 0
-4082 4102 0
-300 -4082 4083 0
-4083 4103 0
-301 -4083 4084 0
-4084 4104 0
-304 -4084 4085 0
-4085 4105 0
-307 -4085 4086 0
-4086 4106 0
-310 -4086 4087 0
-4087 4107 0
-311 -4087 4088 0
-4088 4108 0
-313 -4088 4089 0
-4089 4109 0
-316 -4089 4090 0
-4090 4110 0
-317 -4090 4091 0
-4091 4111 0
-319 -4091 4092 0
-4092 4112 0
-320 -4092 4093 0
-4093 4113 0
-322 -4093 4094 0
-4094 4114 0
8 -4094 4095 0
-4095 4115 0
9 -4095 4096 0
-4096 4116 0
19 -4096 4097 0
-4097 4117 0
25 -4097 4098 0
-4098 4118 0
31 -4098 4099 0
-4099 4119 0
33 -4099 4100 0
-4100 4120 0
-604 -4100 4101 0
-4101 4121 0
-607 -4101 0
-300 4102 0
-4102 4122 0
-301 -4102 4103 0
-4103 4123 0
-304 -4103 4104 0
-4104 4124 0
-307 -4104 4105 0
-4105 4125 0
-310 -4105 4106 0
-4106 4126 0
-311 -4106 4107 0
-4107 4127 0
-313 -4107 4108 0
-4108 4128 0
-316 -4108 4109 0
-4109 4129 0
-317 -4109 4110 0
-4110 4130 0
-319 -4110 4111 0
-4111 4131 0
-320 -4111 4112 0
-4112 4132 0
-322 -4112 4113 0
-4113 4133 0
8 -4113 4114 0
-4114 4134 0
9 -4114 4115 0
-4115 4135 0
19 -4115 4116 0
-4116 4136 0
25 -4116 4117 0
-4117 4137 0
31 -4117 4118 0
-4118 4138 0
33 -4118 4119 0
-4119 4139 0
-604 -4119 4120 0
-4120 4140 0
-607 -4120 4121 0
-4121 4141 0
-608 -4121 0
-301 4122 0
-4122 4142 0
-304 -4122 4123 0
-4123 4143 0
-307 -4123 4124 0
-4124 4144 0
-310 -4124 4125 0
-4125 4145 0
-311 -4125 4126 0
-4126 4146 0
-313 -4126 4127 0
-4127 4147 0
-316 -4127 4128 0
-4128 4148 0
-317 -4128 4129 0
-4129 4149 0
-319 -4129 4130 0
-4130 4150 0
-320 -4130 4131 0
-4131 4151 0
-322 -4131 4132 0
-4132 4152 0
8 -4132 4133 0
-4133 4153 0
9 -4133 4134 0
-4134 4154 0
19 -4134 4135 0
-4135 4155 0
25 -4135 4136 0
-4136 4156 0
31 -4136 4137 0
-4137 4157 0
33 -4137 4138 0
-4138 4158 0
-604 -4138 4139 0
-4139 4159 0
-607 -4139 4140 0
-4140 4160 0
-608 -4140 4141 0
-4141 4161 0
-614 -4141 0
-304 4142 0
-4142 4162 0
-307 -4142 4143 0
-4143 4163 0
-310 -4143 4144 0
-4144 4164 0
-311 -4144 4145 0
-4145 4165 0
-313 -4145 4146 0
-4146 4166 0
-316 -4146 4147 0
-4147 4167 0
-317 -4147 4148 0
-4148 4168 0
-319 -4148 4149 0
-4149 4169 0
-320 -4149 4150 0
-4150 4170 0
-322 -4150 4151 0
-4151 4171 0
8 -4151 4152 0
-4152 4172 0
9 -4152 4153 0
-4153 4173 0
19 -4153 4154 0
-4154 4174 0
25 -4154 4155 0
-4155 4175 0
31 -4155 4156 0
-4156 4176 0
33 -4156 4157 0
-4157 4177 0
-604 -4157 4158 0
-4158 4178 0
-607 -4158 4159 0
-4159 4179 0
-608 -4159 4160 0
-4160 4180 0
-614 -4160 4161 0
-4161 4181 0
-615 -4161 0
-307 4162 0
-4162 4182 0
-310 -4162 4163 0
-4163 4183 0
-311 -4163 4164 0
-4164 4184 0
-313 -4164 4165 0
-4165 4185 0
-316 -4165 4166 0
-4166 4186 0
-317 -4166 4167 0
-4167 4187 0
-319 -4167 4168 0
-4168 4188 0
-320 -4168 4169 0
-4169 4189 0
-322 -4169 4170 0
-4170 4190 0
8 -4170 4171 0
-4171 4191 0
9 -4171 4172 0
-4172 4192 0
19 -4172 4173 0
-4173 4193 0
25 -4173 4174 0
-4174 4194 0
31 -4174 4175 0
-4175 4195 0
33 -4175 4176 0
-4176 4196 0
-604 -4176 4177 0
-4177 4197 0
-607 -4177 4178 0
-4178 4198 0
-608 -4178 4179 0
-4179 4199 0
-614 -4179 4180 0
-4180 4200 0
-615 -4180 4181 0
-4181 4201 0
617 -4181 0
-310 4182 0
-4182 4202 0
-311 -4182 4183 0
-4183 4203 0
-313 -4183 4184 0
-4184 4204 0
-316 -4184 4185 0
-4185 4205 0
-317 -4185 4186 0
-4186 4206 0
-319 -4186 4187 0
-4187 4207 0
-320 -4187 4188 0
-4188 4208 0
-322 -4188 4189 0
-4189 4209 0
8 -4189 4190 0
-4190 4210 0
9 -4190 4191 0
-4191 4211 0
19 -4191 4192 0
-4192 4212 0
25 -4192 4193 0
-4193 4213 0
31 -4193 4194 0
-4194 4214 0
33 -4194 4195 0
-4195 4215 0
-604 -4195 4196 0
-4196 4216 0
-607 -4196 4197 0
-4197 4217 0
-608 -4197 4198 0
-4198 4218 0
-614 -4198 4199 0
-4199 4219 0
-615 -4199 4200 0
-4200 4220 0
617 -4200 4201 0
-4201 4221 0
-618 -4201 0
-311 4202 0
-4202 4222 0
-313 -4202 4203 0
-4203 4223 0
-316 -4203 4204 0
-4204 4224 0
-317 -4204 4205 0
-4205 4225 0
-319 -4205 4206 0
-4206 4226 0
-320 -4206 4207 0
-4207 4227 0
-322 -4207 4208 0
-4208 4228 0
8 -4208 4209 0
-4209 4229 0
9 -4209 4210 0
-4210 4230 0
19 -4210 4211 0
-4211 4231 0
25 -4211 4212 0
-4212 4232 0
31 -4212 4213 0
-4213 4233 0
33 -4213 4214 0
-4214 4234 0
-604 -4214 4215 0
-4215 4235 0
-607 -4215 4216 0
-4216 4236 0
-608 -4216 4217 0
-4217 4237 0
-614 -4217 4218 0
-4218 4238 0
-615 -4218 4219 0
-4219 4239 0
617 -4219 4220 0
-4220 4240 0
-618 -4220 4221 0
-4221 4241 0
-619 -4221 0
-313 4222 0
-4222 4242 0
-316 -4222 4223 0
-4223 4243 0
-317 -4223 4224 0
-4224 4244 0
-319 -4224 4225 0
-4225 4245 0
-320 -4225 4226 0
-4226 4246 0
-322 -4226 4227 0
-4227 4247 0
8 -4227 4228 0
-4228 4248 0
9 -4228 4229 0
-4229 4249 0
19 -4229 4230 0
-4230 4250 0
25 -4230 4231 0
-4231 4251 0
31 -4231 4232 0
-4232 4252 0
33 -4232 4233 0
-4233 4253 0
-604 -4233 4234 0
-4234 4254 0
-607 -4234 4235 0
-4235 4255 0
-608 -4235 4236 0
-4236 4256 0
-614 -4236 4237 0
-4237 4257 0
-615 -4237 4238 0
-4238 4258 0
617 -4238 4239 0
-4239 4259 0
-618 -4239 4240 0
-4240 4260 0
-619 -4240 4241 0
-4241 4261 0
-628 -4241 0
-316 4242 0
-4242 4262 0
-317 -4242 4243 0
-4243 4263 0
-319 -4243 4244 0
-4244 4264 0
-320 -4244 4245 0
-4245 4265 0
-322 -4245 4246 0
-4246 4266 0
8 -4246 4247 0
-4247 4267 0
9 -4247 4248 0
-4248 4268 0
19 -4248 4249 0
-4249 4269 0
25 -4249 4250 0
-4250 4270 0
31 -4250 4251 0
-4251 4271 0
33 -4251 4252 0
-4252 4272 0
-604 -4252 4253 0
-4253 4273 0
-607 -4253 4254 0
-4254 4274 0
-608 -4254 4255 0
-4255 4275 0
-614 -4255 4256 0
-4256 4276 0
-615 -4256 4257 0
-4257 4277 0
617 -4257 4258 0
-4258 4278 0
-618 -4258 4259 0
-4259 4279 0
-619 -4259 4260 0
-4260 4280 0
-628 -4260 4261 0
-4261 4281 0
-629 -4261 0
-317 4262 0
-4262 4282 0
-319 -4262 4263 0
-4263 4283 0
-320 -4263 4264 0
-4264 4284 0
-322 -4264 4265 0
-4265 4285 0
8 -4265 4266 0
-4266 4286 0
9 -4266 4267 0
-4267 4287 0
19 -4267 4268 0
-4268 4288 0
25 -4268 4269 0
-4269 4289 0
31 -4269 4270 0
-4270 4290 0
33 -4270 4271 0
-4271 4291 0
-604 -4271 4272 0
-4272 4292 0
-607 -4272 4273 0
-4273 4293 0
-608 -4273 4274 0
-4274 4294 0
-614 -4274 4275 0
-4275 4295 0
-615 -4275 4276 0
-4276 4296 0
617 -4276 4277 0
-4277 4297 0
-618 -4277 4278 0
-4278 4298 0
-619 -4278 4279 0
-4279 4299 0
-628 -4279 4280 0
-4280 4300 0
-629 -4280 4281 0
-4281 4301 0
631 -4281 0
-319 4282 0
-4282 4302 0
-320 -4282 4283 0
-4283 4303 0
-322 -4283 4284 0
-4284 4304 0
8 -4284 4285 0
-4285 4305 0
9 -4285 4286 0
-4286 4306 0
19 -4286 4287 0
-4287 4307 0
25 -4287 4288 0
-4288 4308 0
31 -4288 4289 0
-4289 4309 0
33 -4289 4290 0
-4290 4310 0
-604 -4290 4291 0
-4291 4311 0
-607 -4291 4292 0
-4292 4312 0
-608 -4292 4293 0
-4293 4313 0
-614 -4293 4294 0
-4294 4314 0
-615 -4294 4295 0
-4295 4315 0
617 -4295 4296 0
-4296 4316 0
-618 -4296 4297 0
-4297 4317 0
-619 -4297 4298 0
-4298 4318 0
-628 -4298 4299 0
-4299 4319 0
-629 -4299 4300 0
-4300 4320 0
631 -4300 4301 0
-4301 4321 0
-632 -4301 0
-320 4302 0
-4302 4322 0
-322 -4302 4303 0
-4303 4323 0
8 -4303 4304 0
-4304 4324 0
9 -4304 4305 0
-4305 4325 0
19 -4305 4306 0
-4306 4326 0
25 -4306 4307 0
-4307 4327 0
31 -4307 4308 0
-4308 4328 0
33 -4308 4309 0
-4309 4329 0
-604 -4309 4310 0
-4310 4330 0
-607 -4310 4311 0
-4311 4331 0
-608 -4311 4312 0
-4312 4332 0
-614 -4312 4313 0
-4313 4333 0
-615 -4313 4314 0
-4314 4334 0
617 -4314 4315 0
-4315 4335 0
-618 -4315 4316 0
-4316 4336 0
-619 -4316 4317 0
-4317 4337 0
-628 -4317 4318 0
-4318 4338 0
-629 -4318 4319 0
-4319 4339 0
631 -4319 4320 0
-4320 4340 0
-632 -4320 4321 0
-4321 4341 0
-633 -4321 0
-322 4322 0
-4322 4342 0
8 -4322 4323 0
-4323 4343 0
9 -4323 4324 0
-4324 4344 0
19 -4324 4325 0
-4325 4345 0
25 -4325 4326 0
-4326 4346 0
31 -4326 4327 0
-4327 4347 0
33 -4327 4328 0
-4328 4348 0
-604 -4328 4329 0
-4329 4349 0
-607 -4329 4330 0
-4330 4350 0
-608 -4330 4331 0
-4331 4351 0
-614 -4331 4332 0
-4332 4352 0
-615 -4332 4333 0
-4333 4353 0
617 -4333 4334 0
-4334 4354 0
-618 -4334 4335 0
-4335 4355 0
-619 -4335 4336 0
-4336 4356 0
-628 -4336 4337 0
-4337 4357 0
-629 -4337 4338 0
-4338 4358 0
631 -4338 4339 0
-4339 4359 0
-632 -4339 4340 0
-4340 4360 0
-633 -4340 4341 0
-4341 4361 0
638 -4341 0
8 4342 0
-4342 4362 0
9 -4342 4343 0
-4343 4363 0
19 -4343 4344 0
-4344 4364 0
25 -4344 4345 0
-4345 4365 0
31 -4345 4346 0
-4346 4366 0
33 -4346 4347 0
-4347 4367 0
-604 -4347 4348 0
-4348 4368 0
-607 -4348 4349 0
-4349 4369 0
-608 -4349 4350 0
-4350 4370 0
-614 -4350 4351 0
-4351 4371 0
-615 -4351 4352 0
-4352 4372 0
617 -4352 4353 0
-4353 4373 0
-618 -4353 4354 0
-4354 4374 0
-619 -4354 4355 0
-4355 4375 0
-628 -4355 4356 0
-4356 4376 0
-629 -4356 4357 0
-4357 4377 0
631 -4357 4358 0
-4358 4378 0
-632 -4358 4359 0
-4359 4379 0
-633 -4359 4360 0
-4360 4380 0
638 -4360 4361 0
-4361 4381 0
-639 -4361 0
9 4362 0
-4362 4382 0
19 -4362 4363 0
-4363 4383 0
25 -4363 4364 0
-4364 4384 0
31 -4364 4365 0
-4365 4385 0
33 -4365 4366 0
-4366 4386 0
-604 -4366 4367 0
-4367 4387 0
-607 -4367 4368 0
-4368 4388 0
-608 -4368 4369 0
-4369 4389 0
-614 -4369 4370 0
-4370 4390 0
-615 -4370 4371 0
-4371 4391 0
617 -4371 4372 0
-4372 4392 0
-618 -4372 4373 0
-4373 4393 0
-619 -4373 4374 0
-4374 4394 0
-628 -4374 4375 0
-4375 4395 0
-629 -4375 4376 0
-4376 4396 0
631 -4376 4377 0
-4377 4397 0
-632 -4377 4378 0
-4378 4398 0
-633 -4378 4379 0
-4379 4399 0
638 -4379 4380 0
-4380 4400 0
-639 -4380 4381 0
-4381 4401 0
-640 -4381 0
19 4382 0
-4382 4402 0
25 -4382 4383 0
-4383 4403 0
31 -4383 4384 0
-4384 4404 0
33 -4384 4385 0
-4385 4405 0
-604 -4385 4386 0
-4386 4406 0
-607 -4386 4387 0
-4387 4407 0
-608 -4387 4388 0
-4388 4408 0
-614 -4388 4389 0
-4389 4409 0
-615 -4389 4390 0
-4390 4410 0
617 -4390 4391 0
-4391 4411 0
-618 -4391 4392 0
-4392 4412 0
-619 -4392 4393 0
-4393 4413 0
-628 -4393 4394 0
-4394 4414 0
-629 -4394 4395 0
-4395 4415 0
631 -4395 4396 0
-4396 4416 0
-632 -4396 4397 0
-4397 4417 0
-633 -4397 4398 0
-4398 4418 0
638 -4398 4399 0
-4399 4419 0
-639 -4399 4400 0
-4400 4420 0
-640 -4400 4401 0
-4401 4421 0
645 -4401 0
25 4402 0
-4402 4422 0
31 -4402 4403 0
-4403 4423 0
33 -4403 4404 0
-4404 4424 0
-604 -4404 4405 0
-4405 4425 0
-607 -4405 4406 0
-4406 4426 0
-608 -4406 4407 0
-4407 4427 0
-614 -4407 4408 0
-4408 4428 0
-615 -4408 4409 0
-4409 4429 0
617 -4409 4410 0
-4410 4430 0
-618 -4410 4411 0
-4411 4431 0
-619 -4411 4412 0
-4412 4432 0
-628 -4412 4413 0
-4413 4433 0
-629 -4413 4414 0
-4414 4434 0
631 -4414 4415 0
-4415 4435 0
-632 -4415 4416 0
-4416 4436 0
-633 -4416 4417 0
-4417 4437 0
638 -4417 4418 0
-4418 4438 0
-639 -4418 4419 0
-4419 4439 0
-640 -4419 4420 0
-4420 4440 0
645 -4420 4421 0
-4421 4441 0
-646 -4421 0
31 4422 0
-4422 4442 0
33 -4422 4423 0
-4423 4443 0
-604 -4423 4424 0
-4424 4444 0
-607 -4424 4425 0
-4425 4445 0
-608 -4425 4426 0
-4426 4446 0
-614 -4426 4427 0
-4427 4447 0
-615 -4427 4428 0
-4428 4448 0
617 -4428 4429 0
-4429 4449 0
-618 -4429 4430 0
-4430 4450 0
-619 -4430 4431 0
-4431 4451 0
-628 -4431 4432 0
-4432 4452 0
-629 -4432 4433 0
-4433 4453 0
631 -4433 4434 0
-4434 4454 0
-632 -4434 4435 0
-4435 4455 0
-633 -4435 4436 0
-4436 4456 0
638 -4436 4437 0
-4437 4457 0
-639 -4437 4438 0
-4438 4458 0
-640 -4438 4439 0
-4439 4459 0
645 -4439 4440 0
-4440 4460 0
-646 -4440 4441 0
-4441 4461 0
647 -4441 0
33 4442 0
-4442 4462 0
-604 -4442 4443 0
-4443 4463 0
-607 -4443 4444 0
-4444 4464 0
-608 -4444 4445 0
-4445 4465 0
-614 -4445 4446 0
-4446 4466 0
-615 -4446 4447 0
-4447 4467 0
617 -4447 4448 0
-4448 4468 0
-618 -4448 4449 0
-4449 4469 0
-619 -4449 4450 0
-4450 4470 0
-628 -4450 4451 0
-4451 4471 0
-629 -4451 4452 0
-4452 4472 0
631 -4452 4453 0
-4453 4473 0
-632 -4453 4454 0
-4454 4474 0
-633 -4454 4455 0
-4455 4475 0
638 -4455 4456 0
-4456 4476 0
-639 -4456 4457 0
-4457 4477 0
-640 -4457 4458 0
-4458 4478 0
645 -4458 4459 0
-4459 4479 0
-646 -4459 4460 0
-4460 4480 0
647 -4460 4461 0
-4461 4481 0
-653 -4461 0
-604 4462 0
-4462 4482 0
-607 -4462 4463 0
-4463 4483 0
-608 -4463 4464 0
-4464 4484 0
-614 -4464 4465 0
-4465 4485 0
-615 -4465 4466 0
-4466 4486 0
617 -4466 4467 0
-4467 4487 0
-618 -4467 4468 0
-4468 4488 0
-619 -4468 4469 0
-4469 4489 0
-628 -4469 4470 0
-4470 4490 0
-629 -4470 4471 0
-4471 4491 0
631 -4471 4472 0
-4472 4492 0
-632 -4472 4473 0
-4473 4493 0
-633 -4473 4474 0
-4474 4494 0
638 -4474 4475 0
-4475 4495 0
-639 -4475 4476 0
-4476 4496 0
-640 -4476 4477 0
-4477 4497 0
645 -4477 4478 0
-4478 4498 0
-646 -4478 4479 0
-4479 4499 0
647 -4479 4480 0
-4480 4500 0
-653 -4480 4481 0
-4481 4501 0
-654 -4481 0
-607 4482 0
-4482 4502 0
-608 -4482 4483 0
-4483 4503 0
-614 -4483 4484 0
-4484 4504 0
-615 -4484 4485 0
-4485 4505 0
617 -4485 4486 0
-4486 4506 0
-618 -4486 4487 0
-4487 4507 0
-619 -4487 4488 0
-4488 4508 0
-628 -4488 4489 0
-4489 4509 0
-629 -4489 4490 0
-4490 4510 0
631 -4490 4491 0
-4491 4511 0
-632 -4491 4492 0
-4492 4512 0
-633 -4492 4493 0
-4493 4513 0
638 -4493 4494 0
-4494 4514 0
-639 -4494 4495 0
-4495 4515 0
-640 -4495 4496 0
-4496 4516 0
645 -4496 4497 0
-4497 4517 0
-646 -4497 4498 0
-4498 4518 0
647 -4498 4499 0
-4499 4519 0
-653 -4499 4500 0
-4500 4520 0
-654 -4500 4501 0
-4501 4521 0
656 -4501 0
-608 4502 0
-4502 4522 0
-614 -4502 4503 0
-4503 4523 0
-615 -4503 4504 0
-4504 4524 0
617 -4504 4505 0
-4505 4525 0
-618 -4505 4506 0
-4506 4526 0
-619 -4506 4507 0
-4507 4527 0
-628 -4507 4508 0
-4508 4528 0
-629 -4508 4509 0
-4509 4529 0
631 -4509 4510 0
-4510 4530 0
-632 -4510 4511 0
-4511 4531 0
-633 -4511 4512 0
-4512 4532 0
638 -4512 4513 0
-4513 4533 0
-639 -4513 4514 0
-4514 4534 0
-640 -4514 4515 0
-4515 4535 0
645 -4515 4516 0
-4516 4536 0
-646 -4516 4517 0
-4517 4537 0
647 -4517 4518 0
-4518 4538 0
-653 -4518 4519 0
-4519 4539 0
-654 -4519 4520 0
-4520 4540 0
656 -4520 4521 0
-4521 4541 0
-657 -4521 0
-614 4522 0
-4522 4542 0
-615 -4522 4523 0
-4523 4543 0
617 -4523 4524 0
-4524 4544 0
-618 -4524 4525 0
-4525 4545 0
-619 -4525 4526 0
-4526 4546 0
-628 -4526 4527 0
-4527 4547 0
-629 -4527 4528 0
-4528 4548 0
631 -4528 4529 0
-4529 4549 0
-632 -4529 4530 0
-4530 4550 0
-633 -4530 4531 0
-4531 4551 0
638 -4531 4532 0
-4532 4552 0
-639 -4532 4533 0
-4533 4553 0
-640 -4533 4534 0
-4534 4554 0
645 -4534 4535 0
-4535 4555 0
-646 -4535 4536 0
-4536 4556 0
647 -4536 4537 0
-4537 4557 0
-653 -4537 4538 0
-4538 4558 0
-654 -4538 4539 0
-4539 4559 0
656 -4539 4540 0
-4540 4560 0
-657 -4540 4541 0
-4541 4561 0
-658 -4541 0
-615 4542 0
-4542 4562 0
617 -4542 4543 0
-4543 4563 0
-618 -4543 4544 0
-4544 4564 0
-619 -4544 4545 0
-4545 4565 0
-628 -4545 4546 0
-4546 4566 0
-629 -4546 4547 0
-4547 4567 0
631 -4547 4548 0
-4548 4568 0
-632 -4548 4549 0
-4549 4569 0
-633 -4549 4550 0
-4550 4570 0
638 -4550 4551 0
-4551 4571 0
-639 -4551 4552 0
-4552 4572 0
-640 -4552 4553 0
-4553 4573 0
645 -4553 4554 0
-4554 4574 0
-646 -4554 4555 0
-4555 4575 0
647 -4555 4556 0
-4556 4576 0
-653 -4556 4557 0
-4557 4577 0
-654 -4557 4558 0
-4558 4578 0
656 -4558 4559 0
-4559 4579 0
-657 -4559 4560 0
-4560 4580 0
-658 -4560 4561 0
-4561 4581 0
663 -4561 0
617 4562 0
-4562 4582 0
-618 -4562 4563 0
-4563 4583 0
-619 -4563 4564 0
-4564 4584 0
-628 -4564 4565 0
-4565 4585 0
-629 -4565 4566 0
-4566 4586 0
631 -4566 4567 0
-4567 4587 0
-632 -4567 4568 0
-4568 4588 0
-633 -4568 4569 0
-4569 4589 0
638 -4569 4570 0
-4570 4590 0
-639 -4570 4571 0
-4571 4591 0
-640 -4571 4572 0
-4572 4592 0
645 -4572 4573 0
-4573 4593 0
-646 -4573 4574 0
-4574 4594 0
647 -4574 4575 0
-4575 4595 0
-653 -4575 4576 0
-4576 4596 0
-654 -4576 4577 0
-4577 4597 0
656 -4577 4578 0
-4578 4598 0
-657 -4578 4579 0
-4579 4599 0
-658 -4579 4580 0
-4580 4600 0
663 -4580 4581 0
-4581 4601 0
-664 -4581 0
-618 4582 0
-4582 4602 0
-619 -4582 4583 0
-4583 4603 0
-628 -4583 4584 0
-4584 4604 0
-629 -4584 4585 0
-4585 4605 0
631 -4585 4586 0
-4586 4606 0
-632 -4586 4587 0
-4587 4607 0
-633 -4587 4588 0
-4588 4608 0
638 -4588 4589 0
-4589 4609 0
-639 -4589 4590 0
-4590 4610 0
-640 -4590 4591 0
-4591 4611 0
645 -4591 4592 0
-4592 4612 0
-646 -4592 4593 0
-4593 4613 0
647 -4593 4594 0
-4594 4614 0
-653 -4594 4595 0
-4595 4615 0
-654 -4595 4596 0
-4596 4616 0
656 -4596 4597 0
-4597 4617 0
-657 -4597 4598 0
-4598 4618 0
-658 -4598 4599 0
-4599 4619 0
663 -4599 4600 0
-4600 4620 0
-664 -4600 4601 0
-4601 4621 0
-665 -4601 0
-619 4602 0
-4602 4622 0
-628 -4602 4603 0
-4603 4623 0
-629 -4603 4604 0
-4604 4624 0
631 -4604 4605 0
-4605 4625 0
-632 -4605 4606 0
-4606 4626 0
-633 -4606 4607 0
-4607 4627 0
638 -4607 4608 0
-4608 4628 0
-639 -4608 4609 0
-4609 4629 0
-640 -4609 4610 0
-4610 4630 0
645 -4610 4611 0
-4611 4631 0
-646 -4611 4612 0
-4612 4632 0
647 -4612 4613 0
-4613 4633 0
-653 -4613 4614 0
-4614 4634 0
-654 -4614 4615 0
-4615 4635 0
656 -4615 4616 0
-4616 4636 0
-657 -4616 4617 0
-4617 4637 0
-658 -4617 4618 0
-4618 4638 0
663 -4618 4619 0
-4619 4639 0
-664 -4619 4620 0
-4620 4640 0
-665 -4620 4621 0
-4621 4641 0
670 -4621 0
-628 4622 0
-4622 4642 0
-629 -4622 4623 0
-4623 4643 0
631 -4623 4624 0
-4624 4644 0
-632 -4624 4625 0
-4625 4645 0
-633 -4625 4626 0
-4626 4646 0
638 -4626 4627 0
-4627 4647 0
-639 -4627 4628 0
-4628 4648 0
-640 -4628 4629 0
-4629 4649 0
645 -4629 4630 0
-4630 4650 0
-646 -4630 4631 0
-4631 4651 0
647 -4631 4632 0
-4632 4652 0
-653 -4632 4633 0
-4633 4653 0
-654 -4633 4634 0
-4634 4654 0
656 -4634 4635 0
-4635 4655 0
-657 -4635 4636 0
-4636 4656 0
-658 -4636 4637 0
-4637 4657 0
663 -4637 4638 0
-4638 4658 0
-664 -4638 4639 0
-4639 4659 0
-665 -4639 4640 0
-4640 4660 0
670 -4640 4641 0
-4641 4661 0
-671 -4641 0
-629 4642 0
-4642 4662 0
631 -4642 4643 0
-4643 4663 0
-632 -4643 4644 0
-4644 4664 0
-633 -4644 4645 0
-4645 4665 0
638 -4645 4646 0
-4646 4666 0
-639 -4646 4647 0
-4647 4667 0
-640 -4647 4648 0
-4648 4668 0
645 -4648 4649 0
-4649 4669 0
-646 -4649 4650 0
-4650 4670 0
647 -4650 4651 0
-4651 4671 0
-653 -4651 4652 0
-4652 4672 0
-654 -4652 4653 0
-4653 4673 0
656 -4653 4654 0
-4654 4674 0
-657 -4654 4655 0
-4655 4675 0
-658 -4655 4656 0
-4656 4676 0
663 -4656 4657 0
-4657 4677 0
-664 -4657 4658 0
-4658 4678 0
-665 -4658 4659 0
-4659 4679 0
670 -4659 4660 0
-4660 4680 0
-671 -4660 4661 0
-4661 4681 0
672 -4661 0
631 4662 0
-4662 4682 0
-632 -4662 4663 0
-4663 4683 0
-633 -4663 4664 0
-4664 4684 0
638 -4664 4665 0
-4665 4685 0
-639 -4665 4666 0
-4666 4686 0
-640 -4666 4667 0
-4667 4687 0
645 -4667 4668 0
-4668 4688 0
-646 -4668 4669 0
-4669 4689 0
647 -4669 4670 0
-4670 4690 0
-653 -4670 4671 0
-4671 4691 0
-654 -4671 4672 0
-4672 4692 0
656 -4672 4673 0
-4673 4693 0
-657 -4673 4674 0
-4674 4694 0
-658 -4674 4675 0
-4675 4695 0
663 -4675 4676 0
-4676 4696 0
-664 -4676 4677 0
-4677 4697 0
-665 -4677 4678 0
-4678 4698 0
670 -4678 4679 0
-4679 4699 0
-671 -4679 4680 0
-4680 4700 0
672 -4680 4681 0
-4681 4701 0
674 -4681 0
-632 4682 0
-4682 4702 0
-633 -4682 4683 0
-4683 4703 0
638 -4683 4684 0
-4684 4704 0
-639 -4684 4685 0
-4685 4705 0
-640 -4685 4686 0
-4686 4706 0
645 -4686 4687 0
-4687 4707 0
-646 -4687 4688 0
-4688 4708 0
647 -4688 4689 0
-4689 4709 0
-653 -4689 4690 0
-4690 4710 0
-654 -4690 4691 0
-4691 4711 0
656 -4691 4692 0
-4692 4712 0
-657 -4692 4693 0
-4693 4713 0
-658 -4693 4694 0
-4694 4714 0
663 -4694 4695 0
-4695 4715 0
-664 -4695 4696 0
-4696 4716 0
-665 -4696 4697 0
-4697 4717 0
670 -4697 4698 0
-4698 4718 0
-671 -4698 4699 0
-4699 4719 0
672 -4699 4700 0
-4700 4720 0
674 -4700 4701 0
-4701 4721 0
-675 -4701 0
-633 4702 0
-4702 4722 0
638 -4702 4703 0
-4703 4723 0
-639 -4703 4704 0
-4704 4724 0
-640 -4704 4705 0
-4705 4725 0
645 -4705 4706 0
-4706 4726 0
-646 -4706 4707 0
-4707 4727 0
647 -4707 4708 0
-4708 4728 0
-653 -4708 4709 0
-4709 4729 0
-654 -4709 4710 0
-4710 4730 0
656 -4710 4711 0
-4711 4731 0
-657 -4711 4712 0
-4712 4732 0
-658 -4712 4713 0
-4713 4733 0
663 -4713 4714 0
-4714 4734 0
-664 -4714 4715 0
-4715 4735 0
-665 -4715 4716 0
-4716 4736 0
670 -4716 4717 0
-4717 4737 0
-671 -4717 4718 0
-4718 4738 0
672 -4718 4719 0
-4719 4739 0
674 -4719 4720 0
-4720 4740 0
-675 -4720 4721 0
-4721 4741 0
-676 -4721 0
638 4722 0
-4722 4742 0
-639 -4722 4723 0
-4723 4743 0
-640 -4723 4724 0
-4724 4744 0
645 -4724 4725 0
-4725 4745 0
-646 -4725 4726 0
-4726 4746 0
647 -4726 4727 0
-4727 4747 0
-653 -4727 4728 0
-4728 4748 0
-654 -4728 4729 0
-4729 4749 0
656 -4729 4730 0
-4730 4750 0
-657 -4730 4731 0
-4731 4751 0
-658 -4731 4732 0
-4732 4752 0
663 -4732 4733 0
-4733 4753 0
-664 -4733 4734 0
-4734 4754 0
-665 -4734 4735 0
-4735 4755 0
670 -4735 4736 0
-4736 4756 0
-671 -4736 4737 0
-4737 4757 0
672 -4737 4738 0
-4738 4758 0
674 -4738 4739 0
-4739 4759 0
-675 -4739 4740 0
-4740 4760 0
-676 -4740 4741 0
-4741 4761 0
681 -4741 0
-639 4742 0
-4742 4762 0
-640 -4742 4743 0
-4743 4763 0
645 -4743 4744 0
-4744 4764 0
-646 -4744 4745 0
-4745 4765 0
647 -4745 4746 0
-4746 4766 0
-653 -4746 4747 0
-4747 4767 0
-654 -4747 4748 0
-4748 4768 0
656 -4748 4749 0
-4749 4769 0
-657 -4749 4750 0
-4750 4770 0
-658 -4750 4751 0
-4751 4771 0
663 -4751 4752 0
-4752 4772 0
-664 -4752 4753 0
-4753 4773 0
-665 -4753 4754 0
-4754 4774 0
670 -4754 4755 0
-4755 4775 0
-671 -4755 4756 0
-4756 4776 0
672 -4756 4757 0
-4757 4777 0
674 -4757 4758 0
-4758 4778 0
-675 -4758 4759 0
-4759 4779 0
-676 -4759 4760 0
-4760 4780 0
681 -4760 4761 0
-4761 4781 0
-682 -4761 0
-640 4762 0
-4762 4782 0
645 -4762 4763 0
-4763 4783 0
-646 -4763 4764 0
-4764 4784 0
647 -4764 4765 0
-4765 4785 0
-653 -4765 4766 0
-4766 4786 0
-654 -4766 4767 0
-4767 4787 0
656 -4767 4768 0
-4768 4788 0
-657 -4768 4769 0
-4769 4789 0
-658 -4769 4770 0
-4770 4790 0
663 -4770 4771 0
-4771 4791 0
-664 -4771 4772 0
-4772 4792 0
-665 -4772 4773 0
-4773 4793 0
670 -4773 4774 0
-4774 4794 0
-671 -4774 4775 0
-4775 4795 0
672 -4775 4776 0
-4776 4796 0
674 -4776 4777 0
-4777 4797 0
-675 -4777 4778 0
-4778 4798 0
-676 -4778 4779 0
-4779 4799 0
681 -4779 4780 0
-4780 4800 0
-682 -4780 4781 0
-4781 4801 0
683 -4781 0
645 4782 0
-4782 4802 0
-646 -4782 4783 0
-4783 4803 0
647 -4783 4784 0
-4784 4804 0
-653 -4784 4785 0
-4785 4805 0
-654 -4785 4786 0
-4786 4806 0
656 -4786 4787 0
-4787 4807 0
-657 -4787 4788 0
-4788 4808 0
-658 -4788 4789 0
-4789 4809 0
663 -4789 4790 0
-4790 4810 0
-664 -4790 4791 0
-4791 4811 0
-665 -4791 4792 0
-4792 4812 0
670 -4792 4793 0
-4793 4813 0
-671 -4793 4794 0
-4794 4814 0
672 -4794 4795 0
-4795 4815 0
674 -4795 4796 0
-4796 4816 0
-675 -4796 4797 0
-4797 4817 0
-676 -4797 4798 0
-4798 4818 0
681 -4798 4799 0
-4799 4819 0
-682 -4799 4800 0
-4800 4820 0
683 -4800 4801 0
-4801 4821 0
685 -4801 0
-646 4802 0
-4802 4822 0
647 -4802 4803 0
-4803 4823 0
-653 -4803 4804 0
-4804 4824 0
-654 -4804 4805 0
-4805 4825 0
656 -4805 4806 0
-4806 4826 0
-657 -4806 4807 0
-4807 4827 0
-658 -4807 4808 0
-4808 4828 0
663 -4808 4809 0
-4809 4829 0
-664 -4809 4810 0
-4810 4830 0
-665 -4810 4811 0
-4811 4831 0
670 -4811 4812 0
-4812 4832 0
-671 -4812 4813 0
-4813 4833 0
672 -4813 4814 0
-4814 4834 0
674 -4814 4815 0
-4815 4835 0
-675 -4815 4816 0
-4816 4836 0
-676 -4816 4817 0
-4817 4837 0
681 -4817 4818 0
-4818 4838 0
-682 -4818 4819 0
-4819 4839 0
683 -4819 4820 0
-4820 4840 0
685 -4820 4821 0
-4821 4841 0
-686 -4821 0
647 4822 0
-4822 4842 0
-653 -4822 4823 0
-4823 4843 0
-654 -4823 4824 0
-4824 4844 0
656 -4824 4825 0
-4825 4845 0
-657 -4825 4826 0
-4826 4846 0
-658 -4826 4827 0
-4827 4847 0
663 -4827 4828 0
-4828 4848 0
-664 -4828 4829 0
-4829 4849 0
-665 -4829 4830 0
-4830 4850 0
670 -4830 4831 0
-4831 4851 0
-671 -4831 4832 0
-4832 4852 0
672 -4832 4833 0
-4833 4853 0
674 -4833 4834 0
-4834 4854 0
-675 -4834 4835 0
-4835 4855 0
-676 -4835 4836 0
-4836 4856 0
681 -4836 4837 0
-4837 4857 0
-682 -4837 4838 0
-4838 4858 0
683 -4838 4839 0
-4839 4859 0
685 -4839 4840 0
-4840 4860 0
-686 -4840 4841 0
-4841 4861 0
687 -4841 0
-653 4842 0
-654 -4842 4843 0
656 -4843 4844 0
-657 -4844 4845 0
-658 -4845 4846 0
663 -4846 4847 0
-664 -4847 4848 0
-665 -4848 4849 0
670 -4849 4850 0
-671 -4850 4851 0
672 -4851 4852 0
674 -4852 4853 0
-675 -4853 4854 0
-676 -4854 4855 0
681 -4855 4856 0
-682 -4856 4857 0
683 -4857 4858 0
685 -4858 4859 0
-686 -4859 4860 0
687 -4860 4861 0
689 -4861 0
-291 4862 0
-4862 4863 0
-295 -4862 4864 0
-4864 4865 0
-298 -4864 4866 0
-4866 4867 0
-300 -4866 4868 0
-4868 4869 0
-302 -4868 4870 0
-4870 4871 0
-305 -4870 4872 0
-4872 4873 0
-308 -4872 4874 0
-4874 4875 0
-310 -4874 4876 0
-4876 4877 0
-312 -4876 4878 0
-4878 4879 0
-314 -4878 4880 0
-4880 4881 0
-316 -4880 4882 0
-4882 4883 0
-318 -4882 4884 0
-4884 4885 0
-319 -4884 4886 0
-4886 4887 0
-321 -4886 4888 0
-4888 4889 0
-322 -4888 4890 0
-4890 4891 0
11 -4890 4892 0
-4892 4893 0
12 -4892 4894 0
-4894 4895 0
21 -4894 4896 0
-4896 4897 0
27 -4896 4898 0
-4898 4899 0
31 -4898 4900 0
-4900 4901 0
35 -4900 0
-295 4863 0
-4863 4902 0
-298 -4863 4865 0
-4865 4903 0
-300 -4865 4867 0
-4867 4904 0
-302 -4867 4869 0
-4869 4905 0
-305 -4869 4871 0
-4871 4906 0
-308 -4871 4873 0
-4873 4907 0
-310 -4873 4875 0
-4875 4908 0
-312 -4875 4877 0
-4877 4909 0
-314 -4877 4879 0
-4879 4910 0
-316 -4879 4881 0
-4881 4911 0
-318 -4881 4883 0
-4883 4912 0
-319 -4883 4885 0
-4885 4913 0
-321 -4885 4887 0
-4887 4914 0
-322 -4887 4889 0
-4889 4915 0
11 -4889 4891 0
-4891 4916 0
12 -4891 4893 0
-4893 4917 0
21 -4893 4895 0
-4895 4918 0
27 -4895 4897 0
-4897 4919 0
31 -4897 4899 0
-4899 4920 0
35 -4899 4901 0
-4901 4921 0
-605 -4901 0
-298 4902 0
-4902 4922 0
-300 -4902 4903 0
-4903 4923 0
-302 -4903 4904 0
-4904 4924 0
-305 -4904 4905 0
-4905 4925 0
-308 -4905 4906 0
-4906 4926 0
-310 -4906 4907 0
-4907 4927 0
-312 -4907 4908 0
-4908 4928 0
-314 -4908 4909 0
-4909 4929 0
-316 -4909 4910 0
-4910 4930 0
-318 -4910 4911 0
-4911 4931 0
-319 -4911 4912 0
-4912 4932 0
-321 -4912 4913 0
-4913 4933 0
-322 -4913 4914 0
-4914 4934 0
11 -4914 4915 0
-4915 4935 0
12 -4915 4916 0
-4916 4936 0
21 -4916 4917 0
-4917 4937 0
27 -4917 4918 0
-4918 4938 0
31 -4918 4919 0
-4919 4939 0
35 -4919 4920 0
-4920 4940 0
-605 -4920 4921 0
-4921 4941 0
-607 -4921 0
-300 4922 0
-4922 4942 0
-302 -4922 4923 0
-4923 4943 0
-305 -4923 4924 0
-4924 4944 0
-308 -4924 4925 0
-4925 4945 0
-310 -4925 4926 0
-4926 4946 0
-312 -4926 4927 0
-4927 4947 0
-314 -4927 4928 0
-4928 4948 0
-316 -4928 4929 0
-4929 4949 0
-318 -4929 4930 0
-4930 4950 0
-319 -4930 4931 0
-4931 4951 0
-321 -4931 4932 0
-4932 4952 0
-322 -4932 4933 0
-4933 4953 0
11 -4933 4934 0
-4934 4954 0
12 -4934 4935 0
-4935 4955 0
21 -4935 4936 0
-4936 4956 0
27 -4936 4937 0
-4937 4957 0
31 -4937 4938 0
-4938 4958 0
35 -4938 4939 0
-4939 4959 0
-605 -4939 4940 0
-4940 4960 0
-607 -4940 4941 0
-4941 4961 0
-609 -4941 0
-302 4942 0
-4942 4962 0
-305 -4942 4943 0
-4943 4963 0
-308 -4943 4944 0
-4944 4964 0
-310 -4944 4945 0
-4945 4965 0
-312 -4945 4946 0
-4946 4966 0
-314 -4946 4947 0
-4947 4967 0
-316 -4947 4948 0
-4948 4968 0
-318 -4948 4949 0
-4949 4969 0
-319 -4949 4950 0
-4950 4970 0
-321 -4950 4951 0
-4951 4971 0
-322 -4951 4952 0
-4952 4972 0
11 -4952 4953 0
-4953 4973 0
12 -4953 4954 0
-4954 4974 0
21 -4954 4955 0
-4955 4975 0
27 -4955 4956 0
-4956 4976 0
31 -4956 4957 0
-4957 4977 0
35 -4957 4958 0
-4958 4978 0
-605 -4958 4959 0
-4959 4979 0
-607 -4959 4960 0
-4960 4980 0
-609 -4960 4961 0
-4961 4981 0
-614 -4961 0
-305 4962 0
-4962 4982 0
-308 -4962 4963 0
-4963 4983 0
-310 -4963 4964 0
-4964 4984 0
-312 -4964 4965 0
-4965 4985 0
-314 -4965 4966 0
-4966 4986 0
-316 -4966 4967 0
-4967 4987 0
-318 -4967 4968 0
-4968 4988 0
-319 -4968 4969 0
-4969 4989 0
-321 -4969 4970 0
-4970 4990 0
-322 -4970 4971 0
-4971 4991 0
11 -4971 4972 0
-4972 4992 0
12 -4972 4973 0
-4973 4993 0
21 -4973 4974 0
-4974 4994 0
27 -4974 4975 0
-4975 4995 0
31 -4975 4976 0
-4976 4996 0
35 -4976 4977 0
-4977 4997 0
-605 -4977 4978 0
-4978 4998 0
-607 -4978 4979 0
-4979 4999 0
-609 -4979 4980 0
-4980 5000 0
-614 -4980 4981 0
-4981 5001 0
-616 -4981 0
-308 4982 0
-4982 5002 0
-310 -4982 4983 0
-4983 5003 0
-312 -4983 4984 0
-4984 5004 0
-314 -4984 4985 0
-4985 5005 0
-316 -4985 4986 0
-4986 5006 0
-318 -4986 4987 0
-4987 5007 0
-319 -4987 4988 0
-4988 5008 0
-321 -4988 4989 0
-4989 5009 0
-322 -4989 4990 0
-4990 5010 0
11 -4990 4991 0
-4991 5011 0
12 -4991 4992 0
-4992 5012 0
21 -4992 4993 0
-4993 5013 0
27 -4993 4994 0
-4994 5014 0
31 -4994 4995 0
-4995 5015 0
35 -4995 4996 0
-4996 5016 0
-605 -4996 4997 0
-4997 5017 0
-607 -4997 4998 0
-4998 5018 0
-609 -4998 4999 0
-4999 5019 0
-614 -4999 5000 0
-5000 5020 0
-616 -5000 5001 0
-5001 5021 0
-620 -5001 0
-310 5002 0
-5002 5022 0
-312 -5002 5003 0
-5003 5023 0
-314 -5003 5004 0
-5004 5024 0
-316 -5004 5005 0
-5005 5025 0
-318 -5005 5006 0
-5006 5026 0
-319 -5006 5007 0
-5007 5027 0
-321 -5007 5008 0
-5008 5028 0
-322 -5008 5009 0
-5009 5029 0
11 -5009 5010 0
-5010 5030 0
12 -5010 5011 0
-5011 5031 0
21 -5011 5012 0
-5012 5032 0
27 -5012 5013 0
-5013 5033 0
31 -5013 5014 0
-5014 5034 0
35 -5014 5015 0
-5015 5035 0
-605 -5015 5016 0
-5016 5036 0
-607 -5016 5017 0
-5017 5037 0
-609 -5017 5018 0
-5018 5038 0
-614 -5018 5019 0
-5019 5039 0
-616 -5019 5020 0
-5020 5040 0
-620 -5020 5021 0
-5021 5041 0
621 -5021 0
-312 5022 0
-5022 5042 0
-314 -5022 5023 0
-5023 5043 0
-316 -5023 5024 0
-5024 5044 0
-318 -5024 5025 0
-5025 5045 0
-319 -5025 5026 0
-5026 5046 0
-321 -5026 5027 0
-5027 5047 0
-322 -5027 5028 0
-5028 5048 0
11 -5028 5029 0
-5029 5049 0
12 -5029 5030 0
-5030 5050 0
21 -5030 5031 0
-5031 5051 0
27 -5031 5032 0
-5032 5052 0
31 -5032 5033 0
-5033 5053 0
35 -5033 5034 0
-5034 5054 0
-605 -5034 5035 0
-5035 5055 0
-607 -5035 5036 0
-5036 5056 0
-609 -5036 5037 0
-5037 5057 0
-614 -5037 5038 0
-5038 5058 0
-616 -5038 5039 0
-5039 5059 0
-620 -5039 5040 0
-5040 5060 0
621 -5040 5041 0
-5041 5061 0
-622 -5041 0
-314 5042 0
-5042 5062 0
-316 -5042 5043 0
-5043 5063 0
-318 -5043 5044 0
-5044 5064 0
-319 -5044 5045 0
-5045 5065 0
-321 -5045 5046 0
-5046 5066 0
-322 -5046 5047 0
-5047 5067 0
11 -5047 5048 0
-5048 5068 0
12 -5048 5049 0
-5049 5069 0
21 -5049 5050 0
-5050 5070 0
27 -5050 5051 0
-5051 5071 0
31 -5051 5052 0
-5052 5072 0
35 -5052 5053 0
-5053 5073 0
-605 -5053 5054 0
-5054 5074 0
-607 -5054 5055 0
-5055 5075 0
-609 -5055 5056 0
-5056 5076 0
-614 -5056 5057 0
-5057 5077 0
-616 -5057 5058 0
-5058 5078 0
-620 -5058 5059 0
-5059 5079 0
621 -5059 5060 0
-5060 5080 0
-622 -5060 5061 0
-5061 5081 0
-628 -5061 0
-316 5062 0
-5062 5082 0
-318 -5062 5063 0
-5063 5083 0
-319 -5063 5064 0
-5064 5084 0
-321 -5064 5065 0
-5065 5085 0
-322 -5065 5066 0
-5066 5086 0
11 -5066 5067 0
-5067 5087 0
12 -5067 5068 0
-5068 5088 0
21 -5068 5069 0
-5069 5089 0
27 -5069 5070 0
-5070 5090 0
31 -5070 5071 0
-5071 5091 0
35 -5071 5072 0
-5072 5092 0
-605 -5072 5073 0
-5073 5093 0
-607 -5073 5074 0
-5074 5094 0
-609 -5074 5075 0
-5075 5095 0
-614 -5075 5076 0
-5076 5096 0
-616 -5076 5077 0
-5077 5097 0
-620 -5077 5078 0
-5078 5098 0
621 -5078 5079 0
-5079 5099 0
-622 -5079 5080 0
-5080 5100 0
-628 -5080 5081 0
-5081 5101 0
-630 -5081 0
-318 5082 0
-5082 5102 0
-319 -5082 5083 0
-5083 5103 0
-321 -5083 5084 0
-5084 5104 0
-322 -5084 5085 0
-5085 5105 0
11 -5085 5086 0
-5086 5106 0
12 -5086 5087 0
-5087 5107 0
21 -5087 5088 0
-5088 5108 0
27 -5088 5089 0
-5089 5109 0
31 -5089 5090 0
-5090 5110 0
35 -5090 5091 0
-5091 5111 0
-605 -5091 5092 0
-5092 5112 0
-607 -5092 5093 0
-5093 5113 0
-609 -5093 5094 0
-5094 5114 0
-614 -5094 5095 0
-5095 5115 0
-616 -5095 5096 0
-5096 5116 0
-620 -5096 5097 0
-5097 5117 0
621 -5097 5098 0
-5098 5118 0
-622 -5098 5099 0
-5099 5119 0
-628 -5099 5100 0
-5100 5120 0
-630 -5100 5101 0
-5101 5121 0
-634 -5101 0
-319 5102 0
-5102 5122 0
-321 -5102 5103 0
-5103 5123 0
-322 -5103 5104 0
-5104 5124 0
11 -5104 5105 0
-5105 5125 0
12 -5105 5106 0
-5106 5126 0
21 -5106 5107 0
-5107 5127 0
27 -5107 5108 0
-5108 5128 0
31 -5108 5109 0
-5109 5129 0
35 -5109 5110 0
-5110 5130 0
-605 -5110 5111 0
-5111 5131 0
-607 -5111 5112 0
-5112 5132 0
-609 -5112 5113 0
-5113 5133 0
-614 -5113 5114 0
-5114 5134 0
-616 -5114 5115 0
-5115 5135 0
-620 -5115 5116 0
-5116 5136 0
621 -5116 5117 0
-5117 5137 0
-622 -5117 5118 0
-5118 5138 0
-628 -5118 5119 0
-5119 5139 0
-630 -5119 5120 0
-5120 5140 0
-634 -5120 5121 0
-5121 5141 0
635 -5121 0
-321 5122 0
-5122 5142 0
-322 -5122 5123 0
-5123 5143 0
11 -5123 5124 0
-5124 5144 0
12 -5124 5125 0
-5125 5145 0
21 -5125 5126 0
-5126 5146 0
27 -5126 5127 0
-5127 5147 0
31 -5127 5128 0
-5128 5148 0
35 -5128 5129 0
-5129 5149 0
-605 -5129 5130 0
-5130 5150 0
-607 -5130 5131 0
-5131 5151 0
-609 -5131 5132 0
-5132 5152 0
-614 -5132 5133 0
-5133 5153 0
-616 -5133 5134 0
-5134 5154 0
-620 -5134 5135 0
-5135 5155 0
621 -5135 5136 0
-5136 5156 0
-622 -5136 5137 0
-5137 5157 0
-628 -5137 5138 0
-5138 5158 0
-630 -5138 5139 0
-5139 5159 0
-634 -5139 5140 0
-5140 5160 0
635 -5140 5141 0
-5141 5161 0
-636 -5141 0
-322 5142 0
-5142 5162 0
11 -5142 5143 0
-5143 5163 0
12 -5143 5144 0
-5144 5164 0
21 -5144 5145 0
-5145 5165 0
27 -5145 5146 0
-5146 5166 0
31 -5146 5147 0
-5147 5167 0
35 -5147 5148 0
-5148 5168 0
-605 -5148 5149 0
-5149 5169 0
-607 -5149 5150 0
-5150 5170 0
-609 -5150 5151 0
-5151 5171 0
-614 -5151 5152 0
-5152 5172 0
-616 -5152 5153 0
-5153 5173 0
-620 -5153 5154 0
-5154 5174 0
621 -5154 5155 0
-5155 5175 0
-622 -5155 5156 0
-5156 5176 0
-628 -5156 5157 0
-5157 5177 0
-630 -5157 5158 0
-5158 5178 0
-634 -5158 5159 0
-5159 5179 0
635 -5159 5160 0
-5160 5180 0
-636 -5160 5161 0
-5161 5181 0
-641 -5161 0
11 5162 0
-5162 5182 0
12 -5162 5163 0
-5163 5183 0
21 -5163 5164 0
-5164 5184 0
27 -5164 5165 0
-5165 5185 0
31 -5165 5166 0
-5166 5186 0
35 -5166 5167 0
-5167 5187 0
-605 -5167 5168 0
-5168 5188 0
-607 -5168 5169 0
-5169 5189 0
-609 -5169 5170 0
-5170 5190 0
-614 -5170 5171 0
-5171 5191 0
-616 -5171 5172 0
-5172 5192 0
-620 -5172 5173 0
-5173 5193 0
621 -5173 5174 0
-5174 5194 0
-622 -5174 5175 0
-5175 5195 0
-628 -5175 5176 0
-5176 5196 0
-630 -5176 5177 0
-5177 5197 0
-634 -5177 5178 0
-5178 5198 0
635 -5178 5179 0
-5179 5199 0
-636 -5179 5180 0
-5180 5200 0
-641 -5180 5181 0
-5181 5201 0
642 -5181 0
12 5182 0
-5182 5202 0
21 -5182 5183 0
-5183 5203 0
27 -5183 5184 0
-5184 5204 0
31 -5184 5185 0
-5185 5205 0
35 -5185 5186 0
-5186 5206 0
-605 -5186 5187 0
-5187 5207 0
-607 -5187 5188 0
-5188 5208 0
-609 -5188 5189 0
-5189 5209 0
-614 -5189 5190 0
-5190 5210 0
-616 -5190 5191 0
-5191 5211 0
-620 -5191 5192 0
-5192 5212 0
621 -5192 5193 0
-5193 5213 0
-622 -5193 5194 0
-5194 5214 0
-628 -5194 5195 0
-5195 5215 0
-630 -5195 5196 0
-5196 5216 0
-634 -5196 5197 0
-5197 5217 0
635 -5197 5198 0
-5198 5218 0
-636 -5198 5199 0
-5199 5219 0
-641 -5199 5200 0
-5200 5220 0
642 -5200 5201 0
-5201 5221 0
-643 -5201 0
21 5202 0
-5202 5222 0
27 -5202 5203 0
-5203 5223 0
31 -5203 5204 0
-5204 5224 0
35 -5204 5205 0
-5205 5225 0
-605 -5205 5206 0
-5206 5226 0
-607 -5206 5207 0
-5207 5227 0
-609 -5207 5208 0
-5208 5228 0
-614 -5208 5209 0
-5209 5229 0
-616 -5209 5210 0
-5210 5230 0
-620 -5210 5211 0
-5211 5231 0
621 -5211 5212 0
-5212 5232 0
-622 -5212 5213 0
-5213 5233 0
-628 -5213 5214 0
-5214 5234 0
-630 -5214 5215 0
-5215 5235 0
-634 -5215 5216 0
-5216 5236 0
635 -5216 5217 0
-5217 5237 0
-636 -5217 5218 0
-5218 5238 0
-641 -5218 5219 0
-5219 5239 0
642 -5219 5220 0
-5220 5240 0
-643 -5220 5221 0
-5221 5241 0
645 -5221 0
27 5222 0
-5222 5242 0
31 -5222 5223 0
-5223 5243 0
35 -5223 5224 0
-5224 5244 0
-605 -5224 5225 0
-5225 5245 0
-607 -5225 5226 0
-5226 5246 0
-609 -5226 5227 0
-5227 5247 0
-614 -5227 5228 0
-5228 5248 0
-616 -5228 5229 0
-5229 5249 0
-620 -5229 5230 0
-5230 5250 0
621 -5230 5231 0
-5231 5251 0
-622 -5231 5232 0
-5232 5252 0
-628 -5232 5233 0
-5233 5253 0
-630 -5233 5234 0
-5234 5254 0
-634 -5234 5235 0
-5235 5255 0
635 -5235 5236 0
-5236 5256 0
-636 -5236 5237 0
-5237 5257 0
-641 -5237 5238 0
-5238 5258 0
642 -5238 5239 0
-5239 5259 0
-643 -5239 5240 0
-5240 5260 0
645 -5240 5241 0
-5241 5261 0
-646 -5241 0
31 5242 0
-5242 5262 0
35 -5242 5243 0
-5243 5263 0
-605 -5243 5244 0
-5244 5264 0
-607 -5244 5245 0
-5245 5265 0
-609 -5245 5246 0
-5246 5266 0
-614 -5246 5247 0
-5247 5267 0
-616 -5247 5248 0
-5248 5268 0
-620 -5248 5249 0
-5249 5269 0
621 -5249 5250 0
-5250 5270 0
-622 -5250 5251 0
-5251 5271 0
-628 -5251 5252 0
-5252 5272 0
-630 -5252 5253 0
-5253 5273 0
-634 -5253 5254 0
-5254 5274 0
635 -5254 5255 0
-5255 5275 0
-636 -5255 5256 0
-5256 5276 0
-641 -5256 5257 0
-5257 5277 0
642 -5257 5258 0
-5258 5278 0
-643 -5258 5259 0
-5259 5279 0
645 -5259 5260 0
-5260 5280 0
-646 -5260 5261 0
-5261 5281 0
648 -5261 0
35 5262 0
-5262 5282 0
-605 -5262 5263 0
-5263 5283 0
-607 -5263 5264 0
-5264 5284 0
-609 -5264 5265 0
-5265 5285 0
-614 -5265 5266 0
-5266 5286 0
-616 -5266 5267 0
-5267 5287 0
-620 -5267 5268 0
-5268 5288 0
621 -5268 5269 0
-5269 5289 0
-622 -5269 5270 0
-5270 5290 0
-628 -5270 5271 0
-5271 5291 0
-630 -5271 5272 0
-5272 5292 0
-634 -5272 5273 0
-5273 5293 0
635 -5273 5274 0
-5274 5294 0
-636 -5274 5275 0
-5275 5295 0
-641 -5275 5276 0
-5276 5296 0
642 -5276 5277 0
-5277 5297 0
-643 -5277 5278 0
-5278 5298 0
645 -5278 5279 0
-5279 5299 0
-646 -5279 5280 0
-5280 5300 0
648 -5280 5281 0
-5281 5301 0
-653 -5281 0
-605 5282 0
-5282 5302 0
-607 -5282 5283 0
-5283 5303 0
-609 -5283 5284 0
-5284 5304 0
-614 -5284 5285 0
-5285 5305 0
-616 -5285 5286 0
-5286 5306 0
-620 -5286 5287 0
-5287 5307 0
621 -5287 5288 0
-5288 5308 0
-622 -5288 5289 0
-5289 5309 0
-628 -5289 5290 0
-5290 5310 0
-630 -5290 5291 0
-5291 5311 0
-634 -5291 5292 0
-5292 5312 0
635 -5292 5293 0
-5293 5313 0
-636 -5293 5294 0
-5294 5314 0
-641 -5294 5295 0
-5295 5315 0
642 -5295 5296 0
-5296 5316 0
-643 -5296 5297 0
-5297 5317 0
645 -5297 5298 0
-5298 5318 0
-646 -5298 5299 0
-5299 5319 0
648 -5299 5300 0
-5300 5320 0
-653 -5300 5301 0
-5301 5321 0
-655 -5301 0
-607 5302 0
-5302 5322 0
-609 -5302 5303 0
-5303 5323 0
-614 -5303 5304 0
-5304 5324 0
-616 -5304 5305 0
-5305 5325 0
-620 -5305 5306 0
-5306 5326 0
621 -5306 5307 0
-5307 5327 0
-622 -5307 5308 0
-5308 5328 0
-628 -5308 5309 0
-5309 5329 0
-630 -5309 5310 0
-5310 5330 0
-634 -5310 5311 0
-5311 5331 0
635 -5311 5312 0
-5312 5332 0
-636 -5312 5313 0
-5313 5333 0
-641 -5313 5314 0
-5314 5334 0
642 -5314 5315 0
-5315 5335 0
-643 -5315 5316 0
-5316 5336 0
645 -5316 5317 0
-5317 5337 0
-646 -5317 5318 0
-5318 5338 0
648 -5318 5319 0
-5319 5339 0
-653 -5319 5320 0
-5320 5340 0
-655 -5320 5321 0
-5321 5341 0
-659 -5321 0
-609 5322 0
-5322 5342 0
-614 -5322 5323 0
-5323 5343 0
-616 -5323 5324 0
-5324 5344 0
-620 -5324 5325 0
-5325 5345 0
621 -5325 5326 0
-5326 5346 0
-622 -5326 5327 0
-5327 5347 0
-628 -5327 5328 0
-5328 5348 0
-630 -5328 5329 0
-5329 5349 0
-634 -5329 5330 0
-5330 5350 0
635 -5330 5331 0
-5331 5351 0
-636 -5331 5332 0
-5332 5352 0
-641 -5332 5333 0
-5333 5353 0
642 -5333 5334 0
-5334 5354 0
-643 -5334 5335 0
-5335 5355 0
645 -5335 5336 0
-5336 5356 0
-646 -5336 5337 0
-5337 5357 0
648 -5337 5338 0
-5338 5358 0
-653 -5338 5339 0
-5339 5359 0
-655 -5339 5340 0
-5340 5360 0
-659 -5340 5341 0
-5341 5361 0
660 -5341 0
-614 5342 0
-5342 5362 0
-616 -5342 5343 0
-5343 5363 0
-620 -5343 5344 0
-5344 5364 0
621 -5344 5345 0
-5345 5365 0
-622 -5345 5346 0
-5346 5366 0
-628 -5346 5347 0
-5347 5367 0
-630 -5347 5348 0
-5348 5368 0
-634 -5348 5349 0
-5349 5369 0
635 -5349 5350 0
-5350 5370 0
-636 -5350 5351 0
-5351 5371 0
-641 -5351 5352 0
-5352 5372 0
642 -5352 5353 0
-5353 5373 0
-643 -5353 5354 0
-5354 5374 0
645 -5354 5355 0
-5355 5375 0
-646 -5355 5356 0
-5356 5376 0
648 -5356 5357 0
-5357 5377 0
-653 -5357 5358 0
-5358 5378 0
-655 -5358 5359 0
-5359 5379 0
-659 -5359 5360 0
-5360 5380 0
660 -5360 5361 0
-5361 5381 0
-661 -5361 0
-616 5362 0
-5362 5382 0
-620 -5362 5363 0
-5363 5383 0
621 -5363 5364 0
-5364 5384 0
-622 -5364 5365 0
-5365 5385 0
-628 -5365 5366 0
-5366 5386 0
-630 -5366 5367 0
-5367 5387 0
-634 -5367 5368 0
-5368 5388 0
635 -5368 5369 0
-5369 5389 0
-636 -5369 5370 0
-5370 5390 0
-641 -5370 5371 0
-5371 5391 0
642 -5371 5372 0
-5372 5392 0
-643 -5372 5373 0
-5373 5393 0
645 -5373 5374 0
-5374 5394 0
-646 -5374 5375 0
-5375 5395 0
648 -5375 5376 0
-5376 5396 0
-653 -5376 5377 0
-5377 5397 0
-655 -5377 5378 0
-5378 5398 0
-659 -5378 5379 0
-5379 5399 0
660 -5379 5380 0
-5380 5400 0
-661 -5380 5381 0
-5381 5401 0
-666 -5381 0
-620 5382 0
-5382 5402 0
621 -5382 5383 0
-5383 5403 0
-622 -5383 5384 0
-5384 5404 0
-628 -5384 5385 0
-5385 5405 0
-630 -5385 5386 0
-5386 5406 0
-634 -5386 5387 0
-5387 5407 0
635 -5387 5388 0
-5388 5408 0
-636 -5388 5389 0
-5389 5409 0
-641 -5389 5390 0
-5390 5410 0
642 -5390 5391 0
-5391 5411 0
-643 -5391 5392 0
-5392 5412 0
645 -5392 5393 0
-5393 5413 0
-646 -5393 5394 0
-5394 5414 0
648 -5394 5395 0
-5395 5415 0
-653 -5395 5396 0
-5396 5416 0
-655 -5396 5397 0
-5397 5417 0
-659 -5397 5398 0
-5398 5418 0
660 -5398 5399 0
-5399 5419 0
-661 -5399 5400 0
-5400 5420 0
-666 -5400 5401 0
-5401 5421 0
667 -5401 0
621 5402 0
-5402 5422 0
-622 -5402 5403 0
-5403 5423 0
-628 -5403 5404 0
-5404 5424 0
-630 -5404 5405 0
-5405 5425 0
-634 -5405 5406 0
-5406 5426 0
635 -5406 5407 0
-5407 5427 0
-636 -5407 5408 0
-5408 5428 0
-641 -5408 5409 0
-5409 5429 0
642 -5409 5410 0
-5410 5430 0
-643 -5410 5411 0
-5411 5431 0
645 -5411 5412 0
-5412 5432 0
-646 -5412 5413 0
-5413 5433 0
648 -5413 5414 0
-5414 5434 0
-653 -5414 5415 0
-5415 5435 0
-655 -5415 5416 0
-5416 5436 0
-659 -5416 5417 0
-5417 5437 0
660 -5417 5418 0
-5418 5438 0
-661 -5418 5419 0
-5419 5439 0
-666 -5419 5420 0
-5420 5440 0
667 -5420 5421 0
-5421 5441 0
-668 -5421 0
-622 5422 0
-5422 5442 0
-628 -5422 5423 0
-5423 5443 0
-630 -5423 5424 0
-5424 5444 0
-634 -5424 5425 0
-5425 5445 0
635 -5425 5426 0
-5426 5446 0
-636 -5426 5427 0
-5427 5447 0
-641 -5427 5428 0
-5428 5448 0
642 -5428 5429 0
-5429 5449 0
-643 -5429 5430 0
-5430 5450 0
645 -5430 5431 0
-5431 5451 0
-646 -5431 5432 0
-5432 5452 0
648 -5432 5433 0
-5433 5453 0
-653 -5433 5434 0
-5434 5454 0
-655 -5434 5435 0
-5435 5455 0
-659 -5435 5436 0
-5436 5456 0
660 -5436 5437 0
-5437 5457 0
-661 -5437 5438 0
-5438 5458 0
-666 -5438 5439 0
-5439 5459 0
667 -5439 5440 0
-5440 5460 0
-668 -5440 5441 0
-5441 5461 0
670 -5441 0
-628 5442 0
-5442 5462 0
-630 -5442 5443 0
-5443 5463 0
-634 -5443 5444 0
-5444 5464 0
635 -5444 5445 0
-5445 5465 0
-636 -5445 5446 0
-5446 5466 0
-641 -5446 5447 0
-5447 5467 0
642 -5447 5448 0
-5448 5468 0
-643 -5448 5449 0
-5449 5469 0
645 -5449 5450 0
-5450 5470 0
-646 -5450 5451 0
-5451 5471 0
648 -5451 5452 0
-5452 5472 0
-653 -5452 5453 0
-5453 5473 0
-655 -5453 5454 0
-5454 5474 0
-659 -5454 5455 0
-5455 5475 0
660 -5455 5456 0
-5456 5476 0
-661 -5456 5457 0
-5457 5477 0
-666 -5457 5458 0
-5458 5478 0
667 -5458 5459 0
-5459 5479 0
-668 -5459 5460 0
-5460 5480 0
670 -5460 5461 0
-5461 5481 0
-671 -5461 0
-630 5462 0
-5462 5482 0
-634 -5462 5463 0
-5463 5483 0
635 -5463 5464 0
-5464 5484 0
-636 -5464 5465 0
-5465 5485 0
-641 -5465 5466 0
-5466 5486 0
642 -5466 5467 0
-5467 5487 0
-643 -5467 5468 0
-5468 5488 0
645 -5468 5469 0
-5469 5489 0
-646 -5469 5470 0
-5470 5490 0
648 -5470 5471 0
-5471 5491 0
-653 -5471 5472 0
-5472 5492 0
-655 -5472 5473 0
-5473 5493 0
-659 -5473 5474 0
-5474 5494 0
660 -5474 5475 0
-5475 5495 0
-661 -5475 5476 0
-5476 5496 0
-666 -5476 5477 0
-5477 5497 0
667 -5477 5478 0
-5478 5498 0
-668 -5478 5479 0
-5479 5499 0
670 -5479 5480 0
-5480 5500 0
-671 -5480 5481 0
-5481 5501 0
673 -5481 0
-634 5482 0
-5482 5502 0
635 -5482 5483 0
-5483 5503 0
-636 -5483 5484 0
-5484 5504 0
-641 -5484 5485 0
-5485 5505 0
642 -5485 5486 0
-5486 5506 0
-643 -5486 5487 0
-5487 5507 0
645 -5487 5488 0
-5488 5508 0
-646 -5488 5489 0
-5489 5509 0
648 -5489 5490 0
-5490 5510 0
-653 -5490 5491 0
-5491 5511 0
-655 -5491 5492 0
-5492 5512 0
-659 -5492 5493 0
-5493 5513 0
660 -5493 5494 0
-5494 5514 0
-661 -5494 5495 0
-5495 5515 0
-666 -5495 5496 0
-5496 5516 0
667 -5496 5497 0
-5497 5517 0
-668 -5497 5498 0
-5498 5518 0
670 -5498 5499 0
-5499 5519 0
-671 -5499 5500 0
-5500 5520 0
673 -5500 5501 0
-5501 5521 0
-677 -5501 0
635 5502 0
-5502 5522 0
-636 -5502 5503 0
-5503 5523 0
-641 -5503 5504 0
-5504 5524 0
642 -5504 5505 0
-5505 5525 0
-643 -5505 5506 0
-5506 5526 0
645 -5506 5507 0
-5507 5527 0
-646 -5507 5508 0
-5508 5528 0
648 -5508 5509 0
-5509 5529 0
-653 -5509 5510 0
-5510 5530 0
-655 -5510 5511 0
-5511 5531 0
-659 -5511 5512 0
-5512 5532 0
660 -5512 5513 0
-5513 5533 0
-661 -5513 5514 0
-5514 5534 0
-666 -5514 5515 0
-5515 5535 0
667 -5515 5516 0
-5516 5536 0
-668 -5516 5517 0
-5517 5537 0
670 -5517 5518 0
-5518 5538 0
-671 -5518 5519 0
-5519 5539 0
673 -5519 5520 0
-5520 5540 0
-677 -5520 5521 0
-5521 5541 0
678 -5521 0
-636 5522 0
-5522 5542 0
-641 -5522 5523 0
-5523 5543 0
642 -5523 5524 0
-5524 5544 0
-643 -5524 5525 0
-5525 5545 0
645 -5525 5526 0
-5526 5546 0
-646 -5526 5527 0
-5527 5547 0
648 -5527 5528 0
-5528 5548 0
-653 -5528 5529 0
-5529 5549 0
-655 -5529 5530 0
-5530 5550 0
-659 -5530 5531 0
-5531 5551 0
660 -5531 5532 0
-5532 5552 0
-661 -5532 5533 0
-5533 5553 0
-666 -5533 5534 0
-5534 5554 0
667 -5534 5535 0
-5535 5555 0
-668 -5535 5536 0
-5536 5556 0
670 -5536 5537 0
-5537 5557 0
-671 -5537 5538 0
-5538 5558 0
673 -5538 5539 0
-5539 5559 0
-677 -5539 5540 0
-5540 5560 0
678 -5540 5541 0
-5541 5561 0
-679 -5541 0
-641 5542 0
-5542 5562 0
642 -5542 5543 0
-5543 5563 0
-643 -5543 5544 0
-5544 5564 0
645 -5544 5545 0
-5545 5565 0
-646 -5545 5546 0
-5546 5566 0
648 -5546 5547 0
-5547 5567 0
-653 -5547 5548 0
-5548 5568 0
-655 -5548 5549 0
-5549 5569 0
-659 -5549 5550 0
-5550 5570 0
660 -5550 5551 0
-5551 5571 0
-661 -5551 5552 0
-5552 5572 0
-666 -5552 5553 0
-5553 5573 0
667 -5553 5554 0
-5554 5574 0
-668 -5554 5555 0
-5555 5575 0
670 -5555 5556 0
-5556 5576 0
-671 -5556 5557 0
-5557 5577 0
673 -5557 5558 0
-5558 5578 0
-677 -5558 5559 0
-5559 5579 0
678 -5559 5560 0
-5560 5580 0
-679 -5560 5561 0
-5561 5581 0
681 -5561 0
642 5562 0
-5562 5582 0
-643 -5562 5563 0
-5563 5583 0
645 -5563 5564 0
-5564 5584 0
-646 -5564 5565 0
-5565 5585 0
648 -5565 5566 0
-5566 5586 0
-653 -5566 5567 0
-5567 5587 0
-655 -5567 5568 0
-5568 5588 0
-659 -5568 5569 0
-5569 5589 0
660 -5569 5570 0
-5570 5590 0
-661 -5570 5571 0
-5571 5591 0
-666 -5571 5572 0
-5572 5592 0
667 -5572 5573 0
-5573 5593 0
-668 -5573 5574 0
-5574 5594 0
670 -5574 5575 0
-5575 5595 0
-671 -5575 5576 0
-5576 5596 0
673 -5576 5577 0
-5577 5597 0
-677 -5577 5578 0
-5578 5598 0
678 -5578 5579 0
-5579 5599 0
-679 -5579 5580 0
-5580 5600 0
681 -5580 5581 0
-5581 5601 0
-682 -5581 0
-643 5582 0
-5582 5602 0
645 -5582 5583 0
-5583 5603 0
-646 -5583 5584 0
-5584 5604 0
648 -5584 5585 0
-5585 5605 0
-653 -5585 5586 0
-5586 5606 0
-655 -5586 5587 0
-5587 5607 0
-659 -5587 5588 0
-5588 5608 0
660 -5588 5589 0
-5589 5609 0
-661 -5589 5590 0
-5590 5610 0
-666 -5590 5591 0
-5591 5611 0
667 -5591 5592 0
-5592 5612 0
-668 -5592 5593 0
-5593 5613 0
670 -5593 5594 0
-5594 5614 0
-671 -5594 5595 0
-5595 5615 0
673 -5595 5596 0
-5596 5616 0
-677 -5596 5597 0
-5597 5617 0
678 -5597 5598 0
-5598 5618 0
-679 -5598 5599 0
-5599 5619 0
681 -5599 5600 0
-5600 5620 0
-682 -5600 5601 0
-5601 5621 0
684 -5601 0
645 5602 0
-5602 5622 0
-646 -5602 5603 0
-5603 5623 0
648 -5603 5604 0
-5604 5624 0
-653 -5604 5605 0
-5605 5625 0
-655 -5605 5606 0
-5606 5626 0
-659 -5606 5607 0
-5607 5627 0
660 -5607 5608 0
-5608 5628 0
-661 -5608 5609 0
-5609 5629 0
-666 -5609 5610 0
-5610 5630 0
667 -5610 5611 0
-5611 5631 0
-668 -5611 5612 0
-5612 5632 0
670 -5612 5613 0
-5613 5633 0
-671 -5613 5614 0
-5614 5634 0
673 -5614 5615 0
-5615 5635 0
-677 -5615 5616 0
-5616 5636 0
678 -5616 5617 0
-5617 5637 0
-679 -5617 5618 0
-5618 5638 0
681 -5618 5619 0
-5619 5639 0
-682 -5619 5620 0
-5620 5640 0
684 -5620 5621 0
-5621 5641 0
685 -5621 0
-646 5622 0
-5622 5642 0
648 -5622 5623 0
-5623 5643 0
-653 -5623 5624 0
-5624 5644 0
-655 -5624 5625 0
-5625 5645 0
-659 -5625 5626 0
-5626 5646 0
660 -5626 5627 0
-5627 5647 0
-661 -5627 5628 0
-5628 5648 0
-666 -5628 5629 0
-5629 5649 0
667 -5629 5630 0
-5630 5650 0
-668 -5630 5631 0
-5631 5651 0
670 -5631 5632 0
-5632 5652 0
-671 -5632 5633 0
-5633 5653 0
673 -5633 5634 0
-5634 5654 0
-677 -5634 5635 0
-5635 5655 0
678 -5635 5636 0
-5636 5656 0
-679 -5636 5637 0
-5637 5657 0
681 -5637 5638 0
-5638 5658 0
-682 -5638 5639 0
-5639 5659 0
684 -5639 5640 0
-5640 5660 0
685 -5640 5641 0
-5641 5661 0
-686 -5641 0
648 5642 0
-5642 5662 0
-653 -5642 5643 0
-5643 5663 0
-655 -5643 5644 0
-5644 5664 0
-659 -5644 5645 0
-5645 5665 0
660 -5645 5646 0
-5646 5666 0
-661 -5646 5647 0
-5647 5667 0
-666 -5647 5648 0
-5648 5668 0
667 -5648 5649 0
-5649 5669 0
-668 -5649 5650 0
-5650 5670 0
670 -5650 5651 0
-5651 5671 0
-671 -5651 5652 0
-5652 5672 0
673 -5652 5653 0
-5653 5673 0
-677 -5653 5654 0
-5654 5674 0
678 -5654 5655 0
-5655 5675 0
-679 -5655 5656 0
-5656 5676 0
681 -5656 5657 0
-5657 5677 0
-682 -5657 5658 0
-5658 5678 0
684 -5658 5659 0
-5659 5679 0
685 -5659 5660 0
-5660 5680 0
-686 -5660 5661 0
-5661 5681 0
688 -5661 0
-653 5662 0
-655 -5662 5663 0
-659 -5663 5664 0
660 -5664 5665 0
-661 -5665 5666 0
-666 -5666 5667 0
667 -5667 5668 0
-668 -5668 5669 0
670 -5669 5670 0
-671 -5670 5671 0
673 -5671 5672 0
-677 -5672 5673 0
678 -5673 5674 0
-679 -5674 5675 0
681 -5675 5676 0
-682 -5676 5677 0
684 -5677 5678 0
685 -5678 5679 0
-686 -5679 5680 0
688 -5680 5681 0
689 -5681 0
-292 5682 0
-5682 5683 0
-296 -5682 5684 0
-5684 5685 0
-299 -5684 5686 0
-5686 5687 0
-301 -5686 5688 0
-5688 5689 0
-302 -5688 5690 0
-5690 5691 0
-306 -5690 5692 0
-5692 5693 0
-309 -5692 5694 0
-5694 5695 0
-311 -5694 5696 0
-5696 5697 0
-312 -5696 5698 0
-5698 5699 0
-315 -5698 5700 0
-5700 5701 0
-317 -5700 5702 0
-5702 5703 0
-318 -5702 5704 0
-5704 5705 0
-320 -5704 5706 0
-5706 5707 0
-321 -5706 5708 0
-5708 5709 0
-322 -5708 5710 0
-5710 5711 0
14 -5710 5712 0
-5712 5713 0
15 -5712 5714 0
-5714 5715 0
23 -5714 5716 0
-5716 5717 0
29 -5716 5718 0
-5718 5719 0
33 -5718 5720 0
-5720 5721 0
35 -5720 0
-296 5683 0
-5683 5722 0
-299 -5683 5685 0
-5685 5723 0
-301 -5685 5687 0
-5687 5724 0
-302 -5687 5689 0
-5689 5725 0
-306 -5689 5691 0
-5691 5726 0
-309 -5691 5693 0
-5693 5727 0
-311 -5693 5695 0
-5695 5728 0
-312 -5695 5697 0
-5697 5729 0
-315 -5697 5699 0
-5699 5730 0
-317 -5699 5701 0
-5701 5731 0
-318 -5701 5703 0
-5703 5732 0
-320 -5703 5705 0
-5705 5733 0
-321 -5705 5707 0
-5707 5734 0
-322 -5707 5709 0
-5709 5735 0
14 -5709 5711 0
-5711 5736 0
15 -5711 5713 0
-5713 5737 0
23 -5713 5715 0
-5715 5738 0
29 -5715 5717 0
-5717 5739 0
33 -5717 5719 0
-5719 5740 0
35 -5719 5721 0
-5721 5741 0
-606 -5721 0
-299 5722 0
-5722 5742 0
-301 -5722 5723 0
-5723 5743 0
-302 -5723 5724 0
-5724 5744 0
-306 -5724 5725 0
-5725 5745 0
-309 -5725 5726 0
-5726 5746 0
-311 -5726 5727 0
-5727 5747 0
-312 -5727 5728 0
-5728 5748 0
-315 -5728 5729 0
-5729 5749 0
-317 -5729 5730 0
-5730 5750 0
-318 -5730 5731 0
-5731 5751 0
-320 -5731 5732 0
-5732 5752 0
-321 -5732 5733 0
-5733 5753 0
-322 -5733 5734 0
-5734 5754 0
14 -5734 5735 0
-5735 5755 0
15 -5735 5736 0
-5736 5756 0
23 -5736 5737 0
-5737 5757 0
29 -5737 5738 0
-5738 5758 0
33 -5738 5739 0
-5739 5759 0
35 -5739 5740 0
-5740 5760 0
-606 -5740 5741 0
-5741 5761 0
-608 -5741 0
-301 5742 0
-5742 5762 0
-302 -5742 5743 0
-5743 5763 0
-306 -5743 5744 0
-5744 5764 0
-309 -5744 5745 0
-5745 5765 0
-311 -5745 5746 0
-5746 5766 0
-312 -5746 5747 0
-5747 5767 0
-315 -5747 5748 0
-5748 5768 0
-317 -5748 5749 0
-5749 5769 0
-318 -5749 5750 0
-5750 5770 0
-320 -5750 5751 0
-5751 5771 0
-321 -5751 5752 0
-5752 5772 0
-322 -5752 5753 0
-5753 5773 0
14 -5753 5754 0
-5754 5774 0
15 -5754 5755 0
-5755 5775 0
23 -5755 5756 0
-5756 5776 0
29 -5756 5757 0
-5757 5777 0
33 -5757 5758 0
-5758 5778 0
35 -5758 5759 0
-5759 5779 0
-606 -5759 5760 0
-5760 5780 0
-608 -5760 5761 0
-5761 5781 0
-609 -5761 0
-302 5762 0
-5762 5782 0
-306 -5762 5763 0
-5763 5783 0
-309 -5763 5764 0
-5764 5784 0
-311 -5764 5765 0
-5765 5785 0
-312 -5765 5766 0
-5766 5786 0
-315 -5766 5767 0
-5767 5787 0
-317 -5767 5768 0
-5768 5788 0
-318 -5768 5769 0
-5769 5789 0
-320 -5769 5770 0
-5770 5790 0
-321 -5770 5771 0
-5771 5791 0
-322 -5771 5772 0
-5772 5792 0
14 -5772 5773 0
-5773 5793 0
15 -5773 5774 0
-5774 5794 0
23 -5774 5775 0
-5775 5795 0
29 -5775 5776 0
-5776 5796 0
33 -5776 5777 0
-5777 5797 0
35 -5777 5778 0
-5778 5798 0
-606 -5778 5779 0
-5779 5799 0
-608 -5779 5780 0
-5780 5800 0
-609 -5780 5781 0
-5781 5801 0
-615 -5781 0
-306 5782 0
-5782 5802 0
-309 -5782 5783 0
-5783 5803 0
-311 -5783 5784 0
-5784 5804 0
-312 -5784 5785 0
-5785 5805 0
-315 -5785 5786 0
-5786 5806 0
-317 -5786 5787 0
-5787 5807 0
-318 -5787 5788 0
-5788 5808 0
-320 -5788 5789 0
-5789 5809 0
-321 -5789 5790 0
-5790 5810 0
-322 -5790 5791 0
-5791 5811 0
14 -5791 5792 0
-5792 5812 0
15 -5792 5793 0
-5793 5813 0
23 -5793 5794 0
-5794 5814 0
29 -5794 5795 0
-5795 5815 0
33 -5795 5796 0
-5796 5816 0
35 -5796 5797 0
-5797 5817 0
-606 -5797 5798 0
-5798 5818 0
-608 -5798 5799 0
-5799 5819 0
-609 -5799 5800 0
-5800 5820 0
-615 -5800 5801 0
-5801 5821 0
-616 -5801 0
-309 5802 0
-5802 5822 0
-311 -5802 5803 0
-5803 5823 0
-312 -5803 5804 0
-5804 5824 0
-315 -5804 5805 0
-5805 5825 0
-317 -5805 5806 0
-5806 5826 0
-318 -5806 5807 0
-5807 5827 0
-320 -5807 5808 0
-5808 5828 0
-321 -5808 5809 0
-5809 5829 0
-322 -5809 5810 0
-5810 5830 0
14 -5810 5811 0
-5811 5831 0
15 -5811 5812 0
-5812 5832 0
23 -5812 5813 0
-5813 5833 0
29 -5813 5814 0
-5814 5834 0
33 -5814 5815 0
-5815 5835 0
35 -5815 5816 0
-5816 5836 0
-606 -5816 5817 0
-5817 5837 0
-608 -5817 5818 0
-5818 5838 0
-609 -5818 5819 0
-5819 5839 0
-615 -5819 5820 0
-5820 5840 0
-616 -5820 5821 0
-5821 5841 0
-620 -5821 0
-311 5822 0
-5822 5842 0
-312 -5822 5823 0
-5823 5843 0
-315 -5823 5824 0
-5824 5844 0
-317 -5824 5825 0
-5825 5845 0
-318 -5825 5826 0
-5826 5846 0
-320 -5826 5827 0
-5827 5847 0
-321 -5827 5828 0
-5828 5848 0
-322 -5828 5829 0
-5829 5849 0
14 -5829 5830 0
-5830 5850 0
15 -5830 5831 0
-5831 5851 0
23 -5831 5832 0
-5832 5852 0
29 -5832 5833 0
-5833 5853 0
33 -5833 5834 0
-5834 5854 0
35 -5834 5835 0
-5835 5855 0
-606 -5835 5836 0
-5836 5856 0
-608 -5836 5837 0
-5837 5857 0
-609 -5837 5838 0
-5838 5858 0
-615 -5838 5839 0
-5839 5859 0
-616 -5839 5840 0
-5840 5860 0
-620 -5840 5841 0
-5841 5861 0
623 -5841 0
-312 5842 0
-5842 5862 0
-315 -5842 5843 0
-5843 5863 0
-317 -5843 5844 0
-5844 5864 0
-318 -5844 5845 0
-5845 5865 0
-320 -5845 5846 0
-5846 5866 0
-321 -5846 5847 0
-5847 5867 0
-322 -5847 5848 0
-5848 5868 0
14 -5848 5849 0
-5849 5869 0
15 -5849 5850 0
-5850 5870 0
23 -5850 5851 0
-5851 5871 0
29 -5851 5852 0
-5852 5872 0
33 -5852 5853 0
-5853 5873 0
35 -5853 5854 0
-5854 5874 0
-606 -5854 5855 0
-5855 5875 0
-608 -5855 5856 0
-5856 5876 0
-609 -5856 5857 0
-5857 5877 0
-615 -5857 5858 0
-5858 5878 0
-616 -5858 5859 0
-5859 5879 0
-620 -5859 5860 0
-5860 5880 0
623 -5860 5861 0
-5861 5881 0
-629 -5861 0
-315 5862 0
-5862 5882 0
-317 -5862 5863 0
-5863 5883 0
-318 -5863 5864 0
-5864 5884 0
-320 -5864 5865 0
-5865 5885 0
-321 -5865 5866 0
-5866 5886 0
-322 -5866 5867 0
-5867 5887 0
14 -5867 5868 0
-5868 5888 0
15 -5868 5869 0
-5869 5889 0
23 -5869 5870 0
-5870 5890 0
29 -5870 5871 0
-5871 5891 0
33 -5871 5872 0
-5872 5892 0
35 -5872 5873 0
-5873 5893 0
-606 -5873 5874 0
-5874 5894 0
-608 -5874 5875 0
-5875 5895 0
-609 -5875 5876 0
-5876 5896 0
-615 -5876 5877 0
-5877 5897 0
-616 -5877 5878 0
-5878 5898 0
-620 -5878 5879 0
-5879 5899 0
623 -5879 5880 0
-5880 5900 0
-629 -5880 5881 0
-5881 5901 0
-630 -5881 0
-317 5882 0
-5882 5902 0
-318 -5882 5883 0
-5883 5903 0
-320 -5883 5884 0
-5884 5904 0
-321 -5884 5885 0
-5885 5905 0
-322 -5885 5886 0
-5886 5906 0
14 -5886 5887 0
-5887 5907 0
15 -5887 5888 0
-5888 5908 0
23 -5888 5889 0
-5889 5909 0
29 -5889 5890 0
-5890 5910 0
33 -5890 5891 0
-5891 5911 0
35 -5891 5892 0
-5892 5912 0
-606 -5892 5893 0
-5893 5913 0
-608 -5893 5894 0
-5894 5914 0
-609 -5894 5895 0
-5895 5915 0
-615 -5895 5896 0
-5896 5916 0
-616 -5896 5897 0
-5897 5917 0
-620 -5897 5898 0
-5898 5918 0
623 -5898 5899 0
-5899 5919 0
-629 -5899 5900 0
-5900 5920 0
-630 -5900 5901 0
-5901 5921 0
-634 -5901 0
-318 5902 0
-5902 5922 0
-320 -5902 5903 0
-5903 5923 0
-321 -5903 5904 0
-5904 5924 0
-322 -5904 5905 0
-5905 5925 0
14 -5905 5906 0
-5906 5926 0
15 -5906 5907 0
-5907 5927 0
23 -5907 5908 0
-5908 5928 0
29 -5908 5909 0
-5909 5929 0
33 -5909 5910 0
-5910 5930 0
35 -5910 5911 0
-5911 5931 0
-606 -5911 5912 0
-5912 5932 0
-608 -5912 5913 0
-5913 5933 0
-609 -5913 5914 0
-5914 5934 0
-615 -5914 5915 0
-5915 5935 0
-616 -5915 5916 0
-5916 5936 0
-620 -5916 5917 0
-5917 5937 0
623 -5917 5918 0
-5918 5938 0
-629 -5918 5919 0
-5919 5939 0
-630 -5919 5920 0
-5920 5940 0
-634 -5920 5921 0
-5921 5941 0
637 -5921 0
-320 5922 0
-5922 5942 0
-321 -5922 5923 0
-5923 5943 0
-322 -5923 5924 0
-5924 5944 0
14 -5924 5925 0
-5925 5945 0
15 -5925 5926 0
-5926 5946 0
23 -5926 5927 0
-5927 5947 0
29 -5927 5928 0
-5928 5948 0
33 -5928 5929 0
-5929 5949 0
35 -5929 5930 0
-5930 5950 0
-606 -5930 5931 0
-5931 5951 0
-608 -5931 5932 0
-5932 5952 0
-609 -5932 5933 0
-5933 5953 0
-615 -5933 5934 0
-5934 5954 0
-616 -5934 5935 0
-5935 5955 0
-620 -5935 5936 0
-5936 5956 0
623 -5936 5937 0
-5937 5957 0
-629 -5937 5938 0
-5938 5958 0
-630 -5938 5939 0
-5939 5959 0
-634 -5939 5940 0
-5940 5960 0
637 -5940 5941 0
-5941 5961 0
-641 -5941 0
-321 5942 0
-5942 5962 0
-322 -5942 5943 0
-5943 5963 0
14 -5943 5944 0
-5944 5964 0
15 -5944 5945 0
-5945 5965 0
23 -5945 5946 0
-5946 5966 0
29 -5946 5947 0
-5947 5967 0
33 -5947 5948 0
-5948 5968 0
35 -5948 5949 0
-5949 5969 0
-606 -5949 5950 0
-5950 5970 0
-608 -5950 5951 0
-5951 5971 0
-609 -5951 5952 0
-5952 5972 0
-615 -5952 5953 0
-5953 5973 0
-616 -5953 5954 0
-5954 5974 0
-620 -5954 5955 0
-5955 5975 0
623 -5955 5956 0
-5956 5976 0
-629 -5956 5957 0
-5957 5977 0
-630 -5957 5958 0
-5958 5978 0
-634 -5958 5959 0
-5959 5979 0
637 -5959 5960 0
-5960 5980 0
-641 -5960 5961 0
-5961 5981 0
644 -5961 0
-322 5962 0
-5962 5982 0
14 -5962 5963 0
-5963 5983 0
15 -5963 5964 0
-5964 5984 0
23 -5964 5965 0
-5965 5985 0
29 -5965 5966 0
-5966 5986 0
33 -5966 5967 0
-5967 5987 0
35 -5967 5968 0
-5968 5988 0
-606 -5968 5969 0
-5969 5989 0
-608 -5969 5970 0
-5970 5990 0
-609 -5970 5971 0
-5971 5991 0
-615 -5971 5972 0
-5972 5992 0
-616 -5972 5973 0
-5973 5993 0
-620 -5973 5974 0
-5974 5994 0
623 -5974 5975 0
-5975 5995 0
-629 -5975 5976 0
-5976 5996 0
-630 -5976 5977 0
-5977 5997 0
-634 -5977 5978 0
-5978 5998 0
637 -5978 5979 0
-5979 5999 0
-641 -5979 5980 0
-5980 6000 0
644 -5980 5981 0
-5981 6001 0
647 -5981 0
14 5982 0
-5982 6002 0
15 -5982 5983 0
-5983 6003 0
23 -5983 5984 0
-5984 6004 0
29 -5984 5985 0
-5985 6005 0
33 -5985 5986 0
-5986 6006 0
35 -5986 5987 0
-5987 6007 0
-606 -5987 5988 0
-5988 6008 0
-608 -5988 5989 0
-5989 6009 0
-609 -5989 5990 0
-5990 6010 0
-615 -5990 5991 0
-5991 6011 0
-616 -5991 5992 0
-5992 6012 0
-620 -5992 5993 0
-5993 6013 0
623 -5993 5994 0
-5994 6014 0
-629 -5994 5995 0
-5995 6015 0
-630 -5995 5996 0
-5996 6016 0
-634 -5996 5997 0
-5997 6017 0
637 -5997 5998 0
-5998 6018 0
-641 -5998 5999 0
-5999 6019 0
644 -5999 6000 0
-6000 6020 0
647 -6000 6001 0
-6001 6021 0
648 -6001 0
15 6002 0
-6002 6022 0
23 -6002 6003 0
-6003 6023 0
29 -6003 6004 0
-6004 6024 0
33 -6004 6005 0
-6005 6025 0
35 -6005 6006 0
-6006 6026 0
-606 -6006 6007 0
-6007 6027 0
-608 -6007 6008 0
-6008 6028 0
-609 -6008 6009 0
-6009 6029 0
-615 -6009 6010 0
-6010 6030 0
-616 -6010 6011 0
-6011 6031 0
-620 -6011 6012 0
-6012 6032 0
623 -6012 6013 0
-6013 6033 0
-629 -6013 6014 0
-6014 6034 0
-630 -6014 6015 0
-6015 6035 0
-634 -6015 6016 0
-6016 6036 0
637 -6016 6017 0
-6017 6037 0
-641 -6017 6018 0
-6018 6038 0
644 -6018 6019 0
-6019 6039 0
647 -6019 6020 0
-6020 6040 0
648 -6020 6021 0
-6021 6041 0
-654 -6021 0
23 6022 0
-6022 6042 0
29 -6022 6023 0
-6023 6043 0
33 -6023 6024 0
-6024 6044 0
35 -6024 6025 0
-6025 6045 0
-606 -6025 6026 0
-6026 6046 0
-608 -6026 6027 0
-6027 6047 0
-609 -6027 6028 0
-6028 6048 0
-615 -6028 6029 0
-6029 6049 0
-616 -6029 6030 0
-6030 6050 0
-620 -6030 6031 0
-6031 6051 0
623 -6031 6032 0
-6032 6052 0
-629 -6032 6033 0
-6033 6053 0
-630 -6033 6034 0
-6034 6054 0
-634 -6034 6035 0
-6035 6055 0
637 -6035 6036 0
-6036 6056 0
-641 -6036 6037 0
-6037 6057 0
644 -6037 6038 0
-6038 6058 0
647 -6038 6039 0
-6039 6059 0
648 -6039 6040 0
-6040 6060 0
-654 -6040 6041 0
-6041 6061 0
-655 -6041 0
29 6042 0
-6042 6062 0
33 -6042 6043 0
-6043 6063 0
35 -6043 6044 0
-6044 6064 0
-606 -6044 6045 0
-6045 6065 0
-608 -6045 6046 0
-6046 6066 0
-609 -6046 6047 0
-6047 6067 0
-615 -6047 6048 0
-6048 6068 0
-616 -6048 6049 0
-6049 6069 0
-620 -6049 6050 0
-6050 6070 0
623 -6050 6051 0
-6051 6071 0
-629 -6051 6052 0
-6052 6072 0
-630 -6052 6053 0
-6053 6073 0
-634 -6053 6054 0
-6054 6074 0
637 -6054 6055 0
-6055 6075 0
-641 -6055 6056 0
-6056 6076 0
644 -6056 6057 0
-6057 6077 0
647 -6057 6058 0
-6058 6078 0
648 -6058 6059 0
-6059 6079 0
-654 -6059 6060 0
-6060 6080 0
-655 -6060 6061 0
-6061 6081 0
-659 -6061 0
33 6062 0
-6062 6082 0
35 -6062 6063 0
-6063 6083 0
-606 -6063 6064 0
-6064 6084 0
-608 -6064 6065 0
-6065 6085 0
-609 -6065 6066 0
-6066 6086 0
-615 -6066 6067 0
-6067 6087 0
-616 -6067 6068 0
-6068 6088 0
-620 -6068 6069 0
-6069 6089 0
623 -6069 6070 0
-6070 6090 0
-629 -6070 6071 0
-6071 6091 0
-630 -6071 6072 0
-6072 6092 0
-634 -6072 6073 0
-6073 6093 0
637 -6073 6074 0
-6074 6094 0
-641 -6074 6075 0
-6075 6095 0
644 -6075 6076 0
-6076 6096 0
647 -6076 6077 0
-6077 6097 0
648 -6077 6078 0
-6078 6098 0
-654 -6078 6079 0
-6079 6099 0
-655 -6079 6080 0
-6080 6100 0
-659 -6080 6081 0
-6081 6101 0
662 -6081 0
35 6082 0
-6082 6102 0
-606 -6082 6083 0
-6083 6103 0
-608 -6083 6084 0
-6084 6104 0
-609 -6084 6085 0
-6085 6105 0
-615 -6085 6086 0
-6086 6106 0
-616 -6086 6087 0
-6087 6107 0
-620 -6087 6088 0
-6088 6108 0
623 -6088 6089 0
-6089 6109 0
-629 -6089 6090 0
-6090 6110 0
-630 -6090 6091 0
-6091 6111 0
-634 -6091 6092 0
-6092 6112 0
637 -6092 6093 0
-6093 6113 0
-641 -6093 6094 0
-6094 6114 0
644 -6094 6095 0
-6095 6115 0
647 -6095 6096 0
-6096 6116 0
648 -6096 6097 0
-6097 6117 0
-654 -6097 6098 0
-6098 6118 0
-655 -6098 6099 0
-6099 6119 0
-659 -6099 6100 0
-6100 6120 0
662 -6100 6101 0
-6101 6121 0
-666 -6101 0
-606 6102 0
-6102 6122 0
-608 -6102 6103 0
-6103 6123 0
-609 -6103 6104 0
-6104 6124 0
-615 -6104 6105 0
-6105 6125 0
-616 -6105 6106 0
-6106 6126 0
-620 -6106 6107 0
-6107 6127 0
623 -6107 6108 0
-6108 6128 0
-629 -6108 6109 0
-6109 6129 0
-630 -6109 6110 0
-6110 6130 0
-634 -6110 6111 0
-6111 6131 0
637 -6111 6112 0
-6112 6132 0
-641 -6112 6113 0
-6113 6133 0
644 -6113 6114 0
-6114 6134 0
647 -6114 6115 0
-6115 6135 0
648 -6115 6116 0
-6116 6136 0
-654 -6116 6117 0
-6117 6137 0
-655 -6117 6118 0
-6118 6138 0
-659 -6118 6119 0
-6119 6139 0
662 -6119 6120 0
-6120 6140 0
-666 -6120 6121 0
-6121 6141 0
669 -6121 0
-608 6122 0
-6122 6142 0
-609 -6122 6123 0
-6123 6143 0
-615 -6123 6124 0
-6124 6144 0
-616 -6124 6125 0
-6125 6145 0
-620 -6125 6126 0
-6126 6146 0
623 -6126 6127 0
-6127 6147 0
-629 -6127 6128 0
-6128 6148 0
-630 -6128 6129 0
-6129 6149 0
-634 -6129 6130 0
-6130 6150 0
637 -6130 6131 0
-6131 6151 0
-641 -6131 6132 0
-6132 6152 0
644 -6132 6133 0
-6133 6153 0
647 -6133 6134 0
-6134 6154 0
648 -6134 6135 0
-6135 6155 0
-654 -6135 6136 0
-6136 6156 0
-655 -6136 6137 0
-6137 6157 0
-659 -6137 6138 0
-6138 6158 0
662 -6138 6139 0
-6139 6159 0
-666 -6139 6140 0
-6140 6160 0
669 -6140 6141 0
-6141 6161 0
672 -6141 0
-609 6142 0
-6142 6162 0
-615 -6142 6143 0
-6143 6163 0
-616 -6143 6144 0
-6144 6164 0
-620 -6144 6145 0
-6145 6165 0
623 -6145 6146 0
-6146 6166 0
-629 -6146 6147 0
-6147 6167 0
-630 -6147 6148 0
-6148 6168 0
-634 -6148 6149 0
-6149 6169 0
637 -6149 6150 0
-6150 6170 0
-641 -6150 6151 0
-6151 6171 0
644 -6151 6152 0
-6152 6172 0
647 -6152 6153 0
-6153 6173 0
648 -6153 6154 0
-6154 6174 0
-654 -6154 6155 0
-6155 6175 0
-655 -6155 6156 0
-6156 6176 0
-659 -6156 6157 0
-6157 6177 0
662 -6157 6158 0
-6158 6178 0
-666 -6158 6159 0
-6159 6179 0
669 -6159 6160 0
-6160 6180 0
672 -6160 6161 0
-6161 6181 0
673 -6161 0
-615 6162 0
-6162 6182 0
-616 -6162 6163 0
-6163 6183 0
-620 -6163 6164 0
-6164 6184 0
623 -6164 6165 0
-6165 6185 0
-629 -6165 6166 0
-6166 6186 0
-630 -6166 6167 0
-6167 6187 0
-634 -6167 6168 0
-6168 6188 0
637 -6168 6169 0
-6169 6189 0
-641 -6169 6170 0
-6170 6190 0
644 -6170 6171 0
-6171 6191 0
647 -6171 6172 0
-6172 6192 0
648 -6172 6173 0
-6173 6193 0
-654 -6173 6174 0
-6174 6194 0
-655 -6174 6175 0
-6175 6195 0
-659 -6175 6176 0
-6176 6196 0
662 -6176 6177 0
-6177 6197 0
-666 -6177 6178 0
-6178 6198 0
669 -6178 6179 0
-6179 6199 0
672 -6179 6180 0
-6180 6200 0
673 -6180 6181 0
-6181 6201 0
-677 -6181 0
-616 6182 0
-6182 6202 0
-620 -6182 6183 0
-6183 6203 0
623 -6183 6184 0
-6184 6204 0
-629 -6184 6185 0
-6185 6205 0
-630 -6185 6186 0
-6186 6206 0
-634 -6186 6187 0
-6187 6207 0
637 -6187 6188 0
-6188 6208 0
-641 -6188 6189 0
-6189 6209 0
644 -6189 6190 0
-6190 6210 0
647 -6190 6191 0
-6191 6211 0
648 -6191 6192 0
-6192 6212 0
-654 -6192 6193 0
-6193 6213 0
-655 -6193 6194 0
-6194 6214 0
-659 -6194 6195 0
-6195 6215 0
662 -6195 6196 0
-6196 6216 0
-666 -6196 6197 0
-6197 6217 0
669 -6197 6198 0
-6198 6218 0
672 -6198 6199 0
-6199 6219 0
673 -6199 6200 0
-6200 6220 0
-677 -6200 6201 0
-6201 6221 0
680 -6201 0
-620 6202 0
-6202 6222 0
623 -6202 6203 0
-6203 6223 0
-629 -6203 6204 0
-6204 6224 0
-630 -6204 6205 0
-6205 6225 0
-634 -6205 6206 0
-6206 6226 0
637 -6206 6207 0
-6207 6227 0
-641 -6207 6208 0
-6208 6228 0
644 -6208 6209 0
-6209 6229 0
647 -6209 6210 0
-6210 6230 0
648 -6210 6211 0
-6211 6231 0
-654 -6211 6212 0
-6212 6232 0
-655 -6212 6213 0
-6213 6233 0
-659 -6213 6214 0
-6214 6234 0
662 -6214 6215 0
-6215 6235 0
-666 -6215 6216 0
-6216 6236 0
669 -6216 6217 0
-6217 6237 0
672 -6217 6218 0
-6218 6238 0
673 -6218 6219 0
-6219 6239 0
-677 -6219 6220 0
-6220 6240 0
680 -6220 6221 0
-6221 6241 0
683 -6221 0
623 6222 0
-6222 6242 0
-629 -6222 6223 0
-6223 6243 0
-630 -6223 6224 0
-6224 6244 0
-634 -6224 6225 0
-6225 6245 0
637 -6225 6226 0
-6226 6246 0
-641 -6226 6227 0
-6227 6247 0
644 -6227 6228 0
-6228 6248 0
647 -6228 6229 0
-6229 6249 0
648 -6229 6230 0
-6230 6250 0
-654 -6230 6231 0
-6231 6251 0
-655 -6231 6232 0
-6232 6252 0
-659 -6232 6233 0
-6233 6253 0
662 -6233 6234 0
-6234 6254 0
-666 -6234 6235 0
-6235 6255 0
669 -6235 6236 0
-6236 6256 0
672 -6236 6237 0
-6237 6257 0
673 -6237 6238 0
-6238 6258 0
-677 -6238 6239 0
-6239 6259 0
680 -6239 6240 0
-6240 6260 0
683 -6240 6241 0
-6241 6261 0
684 -6241 0
-629 6242 0
-6242 6262 0
-630 -6242 6243 0
-6243 6263 0
-634 -6243 6244 0
-6244 6264 0
637 -6244 6245 0
-6245 6265 0
-641 -6245 6246 0
-6246 6266 0
644 -6246 6247 0
-6247 6267 0
647 -6247 6248 0
-6248 6268 0
648 -6248 6249 0
-6249 6269 0
-654 -6249 6250 0
-6250 6270 0
-655 -6250 6251 0
-6251 6271 0
-659 -6251 6252 0
-6252 6272 0
662 -6252 6253 0
-6253 6273 0
-666 -6253 6254 0
-6254 6274 0
669 -6254 6255 0
-6255 6275 0
672 -6255 6256 0
-6256 6276 0
673 -6256 6257 0
-6257 6277 0
-677 -6257 6258 0
-6258 6278 0
680 -6258 6259 0
-6259 6279 0
683 -6259 6260 0
-6260 6280 0
684 -6260 6261 0
-6261 6281 0
687 -6261 0
-630 6262 0
-6262 6282 0
-634 -6262 6263 0
-6263 6283 0
637 -6263 6264 0
-6264 6284 0
-641 -6264 6265 0
-6265 6285 0
644 -6265 6266 0
-6266 6286 0
647 -6266 6267 0
-6267 6287 0
648 -6267 6268 0
-6268 6288 0
-654 -6268 6269 0
-6269 6289 0
-655 -6269 6270 0
-6270 6290 0
-659 -6270 6271 0
-6271 6291 0
662 -6271 6272 0
-6272 6292 0
-666 -6272 6273 0
-6273 6293 0
669 -6273 6274 0
-6274 6294 0
672 -6274 6275 0
-6275 6295 0
673 -6275 6276 0
-6276 6296 0
-677 -6276 6277 0
-6277 6297 0
680 -6277 6278 0
-6278 6298 0
683 -6278 6279 0
-6279 6299 0
684 -6279 6280 0
-6280 6300 0
687 -6280 6281 0
-6281 6301 0
688 -6281 0
-634 6282 0
637 -6282 6283 0
-641 -6283 6284 0
644 -6284 6285 0
647 -6285 6286 0
648 -6286 6287 0
-654 -6287 6288 0
-655 -6288 6289 0
-659 -6289 6290 0
662 -6290 6291 0
-666 -6291 6292 0
669 -6292 6293 0
672 -6293 6294 0
673 -6294 6295 0
-677 -6295 6296 0
680 -6296 6297 0
683 -6297 6298 0
684 -6298 6299 0
687 -6299 6300 0
688 -6300 6301 0
689 -6301 0
-6355 6302 0
-6356 6303 0
-6357 6304 0
-6358 6305 0
-6359 6306 0
-6360 6307 0
-6361 6308 0
-6362 6309 0
-6363 6310 0
-6364 6311 0
-6365 6312 0
-6366 6313 0
-6367 6314 0
-6368 6315 0
-6369 6316 0
-6370 6317 0
-6371 6318 0
-6337 6302 0
-6338 6303 0
-6339 6304 0
-6340 6305 0
-6341 6306 0
-6342 6307 0
-6343 6308 0
-6344 6309 0
-6345 6310 0
-6346 6311 0
-6347 6312 0
-6348 6313 0
-6349 6314 0
-6350 6315 0
-6351 6316 0
-6352 6317 0
-6353 6318 0
-6354 6319 0
-6337 -6355 6303 0
-6337 -6356 6304 0
-6337 -6357 6305 0
-6337 -6358 6306 0
-6337 -6359 6307 0
-6337 -6360 6308 0
-6337 -6361 6309 0
-6337 -6362 6310 0
-6337 -6363 6311 0
-6337 -6364 6312 0
-6337 -6365 6313 0
-6337 -6366 6314 0
-6337 -6367 6315 0
-6337 -6368 6316 0
-6337 -6369 6317 0
-6337 -6370 6318 0
-6337 -6371 6319 0
-6338 -6355 6304 0
-6338 -6356 6305 0
-6338 -6357 6306 0
-6338 -6358 6307 0
-6338 -6359 6308 0
-6338 -6360 6309 0
-6338 -6361 6310 0
-6338 -6362 6311 0
-6338 -6363 6312 0
-6338 -6364 6313 0
-6338 -6365 6314 0
-6338 -6366 6315 0
-6338 -6367 6316 0
-6338 -6368 6317 0
-6338 -6369 6318 0
-6338 -6370 6319 0
-6338 -6371 6320 0
-6339 -6355 6305 0
-6339 -6356 6306 0
-6339 -6357 6307 0
-6339 -6358 6308 0
-6339 -6359 6309 0
-6339 -6360 6310 0
-6339 -6361 6311 0
-6339 -6362 6312 0
-6339 -6363 6313 0
-6339 -6364 6314 0
-6339 -6365 6315 0
-6339 -6366 6316 0
-6339 -6367 6317 0
-6339 -6368 6318 0
-6339 -6369 6319 0
-6339 -6370 6320 0
-6339 -6371 6321 0
-6340 -6355 6306 0
-6340 -6356 6307 0
-6340 -6357 6308 0
-6340 -6358 6309 0
-6340 -6359 6310 0
-6340 -6360 6311 0
-6340 -6361 6312 0
-6340 -6362 6313 0
-6340 -6363 6314 0
-6340 -6364 6315 0
-6340 -6365 6316 0
-6340 -6366 6317 0
-6340 -6367 6318 0
-6340 -6368 6319 0
-6340 -6369 6320 0
-6340 -6370 6321 0
-6340 -6371 6322 0
-6341 -6355 6307 0
-6341 -6356 6308 0
-6341 -6357 6309 0
-6341 -6358 6310 0
-6341 -6359 6311 0
-6341 -6360 6312 0
-6341 -6361 6313 0
-6341 -6362 6314 0
-6341 -6363 6315 0
-6341 -6364 6316 0
-6341 -6365 6317 0
-6341 -6366 6318 0
-6341 -6367 6319 0
-6341 -6368 6320 0
-6341 -6369 6321 0
-6341 -6370 6322 0
-6341 -6371 6323 0
-6342 -6355 6308 0
-6342 -6356 6309 0
-6342 -6357 6310 0
-6342 -6358 6311 0
-6342 -6359 6312 0
-6342 -6360 6313 0
-6342 -6361 6314 0
-6342 -6362 6315 0
-6342 -6363 6316 0
-6342 -6364 6317 0
-6342 -6365 6318 0
-6342 -6366 6319 0
-6342 -6367 6320 0
-6342 -6368 6321 0
-6342 -6369 6322 0
-6342 -6370 6323 0
-6342 -6371 6324 0
-6343 -6355 6309 0
-6343 -6356 6310 0
-6343 -6357 6311 0
-6343 -6358 6312 0
-6343 -6359 6313 0
-6343 -6360 6314 0
-6343 -6361 6315 0
-6343 -6362 6316 0
-6343 -6363 6317 0
-6343 -6364 6318 0
-6343 -6365 6319 0
-6343 -6366 6320 0
-6343 -6367 6321 0
-6343 -6368 6322 0
-6343 -6369 6323 0
-6343 -6370 6324 0
-6343 -6371 6325 0
-6344 -6355 6310 0
-6344 -6356 6311 0
-6344 -6357 6312 0
-6344 -6358 6313 0
-6344 -6359 6314 0
-6344 -6360 6315 0
-6344 -6361 6316 0
-6344 -6362 6317 0
-6344 -6363 6318 0
-6344 -6364 6319 0
-6344 -6365 6320 0
-6344 -6366 6321 0
-6344 -6367 6322 0
-6344 -6368 6323 0
-6344 -6369 6324 0
-6344 -6370 6325 0
-6344 -6371 6326 0
-6345 -6355 6311 0
-6345 -6356 6312 0
-6345 -6357 6313 0
-6345 -6358 6314 0
-6345 -6359 6315 0
-6345 -6360 6316 0
-6345 -6361 6317 0
-6345 -6362 6318 0
-6345 -6363 6319 0
-6345 -6364 6320 0
-6345 -6365 6321 0
-6345 -6366 6322 0
-6345 -6367 6323 0
-6345 -6368 6324 0
-6345 -6369 6325 0
-6345 -6370 6326 0
-6345 -6371 6327 0
-6346 -6355 6312 0
-6346 -6356 6313 0
-6346 -6357 6314 0
-6346 -6358 6315 0
-6346 -6359 6316 0
-6346 -6360 6317 0
-6346 -6361 6318 0
-6346 -6362 6319 0
-6346 -6363 6320 0
-6346 -6364 6321 0
-6346 -6365 6322 0
-6346 -6366 6323 0
-6346 -6367 6324 0
-6346 -6368 6325 0
-6346 -6369 6326 0
-6346 -6370 6327 0
-6346 -6371 6328 0
-6347 -6355 6313 0
-6347 -6356 6314 0
-6347 -6357 6315 0
-6347 -6358 6316 0
-6347 -6359 6317 0
-6347 -6360 6318 0
-6347 -6361 6319 0
-6347 -6362 6320 0
-6347 -6363 6321 0
-6347 -6364 6322 0
-6347 -6365 6323 0
-6347 -6366 6324 0
-6347 -6367 6325 0
-6347 -6368 6326 0
-6347 -6369 6327 0
-6347 -6370 6328 0
-6347 -6371 6329 0
-6348 -6355 6314 0
-6348 -6356 6315 0
-6348 -6357 6316 0
-6348 -6358 6317 0
-6348 -6359 6318 0
-6348 -6360 6319 0
-6348 -6361 6320 0
-6348 -6362 6321 0
-6348 -6363 6322 0
-6348 -6364 6323 0
-6348 -6365 6324 0
-6348 -6366 6325 0
-6348 -6367 6326 0
-6348 -6368 6327 0
-6348 -6369 6328 0
-6348 -6370 6329 0
-6348 -6371 6330 0
-6349 -6355 6315 0
-6349 -6356 6316 0
-6349 -6357 6317 0
-6349 -6358 6318 0
-6349 -6359 6319 0
-6349 -6360 6320 0
-6349 -6361 6321 0
-6349 -6362 6322 0
-6349 -6363 6323 0
-6349 -6364 6324 0
-6349 -6365 6325 0
-6349 -6366 6326 0
-6349 -6367 6327 0
-6349 -6368 6328 0
-6349 -6369 6329 0
-6349 -6370 6330 0
-6349 -6371 6331 0
-6350 -6355 6316 0
-6350 -6356 6317 0
-6350 -6357 6318 0
-6350 -6358 6319 0
-6350 -6359 6320 0
-6350 -6360 6321 0
-6350 -6361 6322 0
-6350 -6362 6323 0
-6350 -6363 6324 0
-6350 -6364 6325 0
-6350 -6365 6326 0
-6350 -6366 6327 0
-6350 -6367 6328 0
-6350 -6368 6329 0
-6350 -6369 6330 0
-6350 -6370 6331 0
-6350 -6371 6332 0
-6351 -6355 6317 0
-6351 -6356 6318 0
-6351 -6357 6319 0
-6351 -6358 6320 0
-6351 -6359 6321 0
-6351 -6360 6322 0
-6351 -6361 6323 0
-6351 -6362 6324 0
-6351 -6363 6325 0
-6351 -6364 6326 0
-6351 -6365 6327 0
-6351 -6366 6328 0
-6351 -6367 6329 0
-6351 -6368 6330 0
-6351 -6369 6331 0
-6351 -6370 6332 0
-6351 -6371 6333 0
-6352 -6355 6318 0
-6352 -6356 6319 0
-6352 -6357 6320 0
-6352 -6358 6321 0
-6352 -6359 6322 0
-6352 -6360 6323 0
-6352 -6361 6324 0
-6352 -6362 6325 0
-6352 -6363 6326 0
-6352 -6364 6327 0
-6352 -6365 6328 0
-6352 -6366 6329 0
-6352 -6367 6330 0
-6352 -6368 6331 0
-6352 -6369 6332 0
-6352 -6370 6333 0
-6352 -6371 6334 0
-6353 -6355 6319 0
-6353 -6356 6320 0
-6353 -6357 6321 0
-6353 -6358 6322 0
-6353 -6359 6323 0
-6353 -6360 6324 0
-6353 -6361 6325 0
-6353 -6362 6326 0
-6353 -6363 6327 0
-6353 -6364 6328 0
-6353 -6365 6329 0
-6353 -6366 6330 0
-6353 -6367 6331 0
-6353 -6368 6332 0
-6353 -6369 6333 0
-6353 -6370 6334 0
-6353 -6371 6335 0
-6354 -6355 6320 0
-6354 -6356 6321 0
-6354 -6357 6322 0
-6354 -6358 6323 0
-6354 -6359 6324 0
-6354 -6360 6325 0
-6354 -6361 6326 0
-6354 -6362 6327 0
-6354 -6363 6328 0
-6354 -6364 6329 0
-6354 -6365 6330 0
-6354 -6366 6331 0
-6354 -6367 6332 0
-6354 -6368 6333 0
-6354 -6369 6334 0
-6354 -6370 6335 0
-6354 -6371 6336 0
-6381 6355 0
-6382 6356 0
-6383 6357 0
-6384 6358 0
-6385 6359 0
-6386 6360 0
-6387 6361 0
-6388 6362 0
-6372 6355 0
-6373 6356 0
-6374 6357 0
-6375 6358 0
-6376 6359 0
-6377 6360 0
-6378 6361 0
-6379 6362 0
-6380 6363 0
-6372 -6381 6356 0
-6372 -6382 6357 0
-6372 -6383 6358 0
-6372 -6384 6359 0
-6372 -6385 6360 0
-6372 -6386 6361 0
-6372 -6387 6362 0
-6372 -6388 6363 0
-6373 -6381 6357 0
-6373 -6382 6358 0
-6373 -6383 6359 0
-6373 -6384 6360 0
-6373 -6385 6361 0
-6373 -6386 6362 0
-6373 -6387 6363 0
-6373 -6388 6364 0
-6374 -6381 6358 0
-6374 -6382 6359 0
-6374 -6383 6360 0
-6374 -6384 6361 0
-6374 -6385 6362 0
-6374 -6386 6363 0
-6374 -6387 6364 0
-6374 -6388 6365 0
-6375 -6381 6359 0
-6375 -6382 6360 0
-6375 -6383 6361 0
-6375 -6384 6362 0
-6375 -6385 6363 0
-6375 -6386 6364 0
-6375 -6387 6365 0
-6375 -6388 6366 0
-6376 -6381 6360 0
-6376 -6382 6361 0
-6376 -6383 6362 0
-6376 -6384 6363 0
-6376 -6385 6364 0
-6376 -6386 6365 0
-6376 -6387 6366 0
-6376 -6388 6367 0
-6377 -6381 6361 0
-6377 -6382 6362 0
-6377 -6383 6363 0
-6377 -6384 6364 0
-6377 -6385 6365 0
-6377 -6386 6366 0
-6377 -6387 6367 0
-6377 -6388 6368 0
-6378 -6381 6362 0
-6378 -6382 6363 0
-6378 -6383 6364 0
-6378 -6384 6365 0
-6378 -6385 6366 0
-6378 -6386 6367 0
-6378 -6387 6368 0
-6378 -6388 6369 0
-6379 -6381 6363 0
-6379 -6382 6364 0
-6379 -6383 6365 0
-6379 -6384 6366 0
-6379 -6385 6367 0
-6379 -6386 6368 0
-6379 -6387 6369 0
-6379 -6388 6370 0
-6380 -6381 6364 0
-6380 -6382 6365 0
-6380 -6383 6366 0
-6380 -6384 6367 0
-6380 -6385 6368 0
-6380 -6386 6369 0
-6380 -6387 6370 0
-6380 -6388 6371 0
-6393 6381 0
-6394 6382 0
-6395 6383 0
-6396 6384 0
-6389 6381 0
-6390 6382 0
-6391 6383 0
-6392 6384 0
-6389 -6393 6382 0
-6389 -6394 6383 0
-6389 -6395 6384 0
-6389 -6396 6385 0
-6390 -6393 6383 0
-6390 -6394 6384 0
-6390 -6395 6385 0
-6390 -6396 6386 0
-6391 -6393 6384 0
-6391 -6394 6385 0
-6391 -6395 6386 0
-6391 -6396 6387 0
-6392 -6393 6385 0
-6392 -6394 6386 0
-6392 -6395 6387 0
-6392 -6396 6388 0
-6399 6393 0
-6400 6394 0
-6397 6393 0
-6398 6394 0
-6397 -6399 6394 0
-6397 -6400 6395 0
-6398 -6399 6395 0
-6398 -6400 6396 0
-322 6399 0
-321 6399 0
-321 -322 6400 0
-320 6397 0
-319 6397 0
-319 -320 6398 0
-6403 6389 0
-6404 6390 0
-6401 6389 0
-6402 6390 0
-6401 -6403 6390 0
-6401 -6404 6391 0
-6402 -6403 6391 0
-6402 -6404 6392 0
-318 6403 0
-317 6403 0
-317 -318 6404 0
-316 6401 0
-315 6401 0
-315 -316 6402 0
-6410 6372 0
-6411 6373 0
-6412 6374 0
-6413 6375 0
-6405 6372 0
-6406 6373 0
-6407 6374 0
-6408 6375 0
-6409 6376 0
-6405 -6410 6373 0
-6405 -6411 6374 0
-6405 -6412 6375 0
-6405 -6413 6376 0
-6406 -6410 6374 0
-6406 -6411 6375 0
-6406 -6412 6376 0
-6406 -6413 6377 0
-6407 -6410 6375 0
-6407 -6411 6376 0
-6407 -6412 6377 0
-6407 -6413 6378 0
-6408 -6410 6376 0
-6408 -6411 6377 0
-6408 -6412 6378 0
-6408 -6413 6379 0
-6409 -6410 6377 0
-6409 -6411 6378 0
-6409 -6412 6379 0
-6409 -6413 6380 0
-6416 6410 0
-6417 6411 0
-6414 6410 0
-6415 6411 0
-6414 -6416 6411 0
-6414 -6417 6412 0
-6415 -6416 6412 0
-6415 -6417 6413 0
-314 6416 0
-313 6416 0
-313 -314 6417 0
-312 6414 0
-311 6414 0
-311 -312 6415 0
-6421 6405 0
-6422 6406 0
-6418 6405 0
-6419 6406 0
-6420 6407 0
-6418 -6421 6406 0
-6418 -6422 6407 0
-6419 -6421 6407 0
-6419 -6422 6408 0
-6420 -6421 6408 0
-6420 -6422 6409 0
-310 6421 0
-309 6421 0
-309 -310 6422 0
-308 6418 0
-6423 6418 0
-6424 6419 0
-6423 -308 6419 0
-6424 -308 6420 0
-307 6423 0
-306 6423 0
-306 -307 6424 0
-6434 6337 0
-6435 6338 0
-6436 6339 0
-6437 6340 0
-6438 6341 0
-6439 6342 0
-6440 6343 0
-6441 6344 0
-6442 6345 0
-6425 6337 0
-6426 6338 0
-6427 6339 0
-6428 6340 0
-6429 6341 0
-6430 6342 0
-6431 6343 0
-6432 6344 0
-6433 6345 0
-6425 -6434 6338 0
-6425 -6435 6339 0
-6425 -6436 6340 0
-6425 -6437 6341 0
-6425 -6438 6342 0
-6425 -6439 6343 0
-6425 -6440 6344 0
-6425 -6441 6345 0
-6425 -6442 6346 0
-6426 -6434 6339 0
-6426 -6435 6340 0
-6426 -6436 6341 0
-6426 -6437 6342 0
-6426 -6438 6343 0
-6426 -6439 6344 0
-6426 -6440 6345 0
-6426 -6441 6346 0
-6426 -6442 6347 0
-6427 -6434 6340 0
-6427 -6435 6341 0
-6427 -6436 6342 0
-6427 -6437 6343 0
-6427 -6438 6344 0
-6427 -6439 6345 0
-6427 -6440 6346 0
-6427 -6441 6347 0
-6427 -6442 6348 0
-6428 -6434 6341 0
-6428 -6435 6342 0
-6428 -6436 6343 0
-6428 -6437 6344 0
-6428 -6438 6345 0
-6428 -6439 6346 0
-6428 -6440 6347 0
-6428 -6441 6348 0
-6428 -6442 6349 0
-6429 -6434 6342 0
-6429 -6435 6343 0
-6429 -6436 6344 0
-6429 -6437 6345 0
-6429 -6438 6346 0
-6429 -6439 6347 0
-6429 -6440 6348 0
-6429 -6441 6349 0
-6429 -6442 6350 0
-6430 -6434 6343 0
-6430 -6435 6344 0
-6430 -6436 6345 0
-6430 -6437 6346 0
-6430 -6438 6347 0
-6430 -6439 6348 0
-6430 -6440 6349 0
-6430 -6441 6350 0
-6430 -6442 6351 0
-6431 -6434 6344 0
-6431 -6435 6345 0
-6431 -6436 6346 0
-6431 -6437 6347 0
-6431 -6438 6348 0
-6431 -6439 6349 0
-6431 -6440 6350 0
-6431 -6441 6351 0
-6431 -6442 6352 0
-6432 -6434 6345 0
-6432 -6435 6346 0
-6432 -6436 6347 0
-6432 -6437 6348 0
-6432 -6438 6349 0
-6432 -6439 6350 0
-6432 -6440 6351 0
-6432 -6441 6352 0
-6432 -6442 6353 0
-6433 -6434 6346 0
-6433 -6435 6347 0
-6433 -6436 6348 0
-6433 -6437 6349 0
-6433 -6438 6350 0
-6433 -6439 6351 0
-6433 -6440 6352 0
-6433 -6441 6353 0
-6433 -6442 6354 0
-6448 6434 0
-6449 6435 0
-6450 6436 0
-6451 6437 0
-6443 6434 0
-6444 6435 0
-6445 6436 0
-6446 6437 0
-6447 6438 0
-6443 -6448 6435 0
-6443 -6449 6436 0
-6443 -6450 6437 0
-6443 -6451 6438 0
-6444 -6448 6436 0
-6444 -6449 6437 0
-6444 -6450 6438 0
-6444 -6451 6439 0
-6445 -6448 6437 0
-6445 -6449 6438 0
-6445 -6450 6439 0
-6445 -6451 6440 0
-6446 -6448 6438 0
-6446 -6449 6439 0
-6446 -6450 6440 0
-6446 -6451 6441 0
-6447 -6448 6439 0
-6447 -6449 6440 0
-6447 -6450 6441 0
-6447 -6451 6442 0
-6454 6448 0
-6455 6449 0
-6452 6448 0
-6453 6449 0
-6452 -6454 6449 0
-6452 -6455 6450 0
-6453 -6454 6450 0
-6453 -6455 6451 0
-305 6454 0
-304 6454 0
-304 -305 6455 0
-303 6452 0
-302 6452 0
-302 -303 6453 0
-6459 6443 0
-6460 6444 0
-6456 6443 0
-6457 6444 0
-6458 6445 0
-6456 -6459 6444 0
-6456 -6460 6445 0
-6457 -6459 6445 0
-6457 -6460 6446 0
-6458 -6459 6446 0
-6458 -6460 6447 0
-301 6459 0
-300 6459 0
-300 -301 6460 0
-299 6456 0
-6461 6456 0
-6462 6457 0
-6461 -299 6457 0
-6462 -299 6458 0
-298 6461 0
-297 6461 0
-297 -298 6462 0
-6468 6425 0
-6469 6426 0
-6470 6427 0
-6471 6428 0
-6463 6425 0
-6464 6426 0
-6465 6427 0
-6466 6428 0
-6467 6429 0
-6463 -6468 6426 0
-6463 -6469 6427 0
-6463 -6470 6428 0
-6463 -6471 6429 0
-6464 -6468 6427 0
-6464 -6469 6428 0
-6464 -6470 6429 0
-6464 -6471 6430 0
-6465 -6468 6428 0
-6465 -6469 6429 0
-6465 -6470 6430 0
-6465 -6471 6431 0
-6466 -6468 6429 0
-6466 -6469 6430 0
-6466 -6470 6431 0
-6466 -6471 6432 0
-6467 -6468 6430 0
-6467 -6469 6431 0
-6467 -6470 6432 0
-6467 -6471 6433 0
-6474 6468 0
-6475 6469 0
-6472 6468 0
-6473 6469 0
-6472 -6474 6469 0
-6472 -6475 6470 0
-6473 -6474 6470 0
-6473 -6475 6471 0
-296 6474 0
-295 6474 0
-295 -296 6475 0
-294 6472 0
-293 6472 0
-293 -294 6473 0
-6479 6463 0
-6480 6464 0
-6476 6463 0
-6477 6464 0
-6478 6465 0
-6476 -6479 6464 0
-6476 -6480 6465 0
-6477 -6479 6465 0
-6477 -6480 6466 0
-6478 -6479 6466 0
-6478 -6480 6467 0
-292 6479 0
-291 6479 0
-291 -292 6480 0
-290 6476 0
-6481 6476 0
-6482 6477 0
-6481 -290 6477 0
-6482 -290 6478 0
-289 6481 0
-288 6481 0
-288 -289 6482 0
-6314 0
