p cnf 1213 3173
-1 -2 0
-1 -3 0
-1 -4 0
-1 -5 0
-1 -6 0
-1 -7 0
-1 -8 0
-1 -9 0
-1 -10 0
-1 -11 0
-1 -12 0
-1 -13 0
-1 -14 0
-2 -3 0
-2 -4 0
-2 -5 0
-2 -6 0
-2 -7 0
-2 -8 0
-2 -9 0
-2 -10 0
-2 -11 0
-2 -12 0
-2 -13 0
-2 -14 0
-3 -4 0
-3 -5 0
-3 -6 0
-3 -7 0
-3 -8 0
-3 -9 0
-3 -10 0
-3 -11 0
-3 -12 0
-3 -13 0
-3 -14 0
-4 -5 0
-4 -6 0
-4 -7 0
-4 -8 0
-4 -9 0
-4 -10 0
-4 -11 0
-4 -12 0
-4 -13 0
-4 -14 0
-5 -6 0
-5 -7 0
-5 -8 0
-5 -9 0
-5 -10 0
-5 -11 0
-5 -12 0
-5 -13 0
-5 -14 0
-6 -7 0
-6 -8 0
-6 -9 0
-6 -10 0
-6 -11 0
-6 -12 0
-6 -13 0
-6 -14 0
-7 -8 0
-7 -9 0
-7 -10 0
-7 -11 0
-7 -12 0
-7 -13 0
-7 -14 0
-8 -9 0
-8 -10 0
-8 -11 0
-8 -12 0
-8 -13 0
-8 -14 0
-9 -10 0
-9 -11 0
-9 -12 0
-9 -13 0
-9 -14 0
-10 -11 0
-10 -12 0
-10 -13 0
-10 -14 0
-11 -12 0
-11 -13 0
-11 -14 0
-12 -13 0
-12 -14 0
-13 -14 0
-220 197 1 0
-221 198 2 0
-222 199 0
-223 200 3 0
-224 201 4 0
-225 202 5 0
-226 203 6 0
-227 204 0
-228 205 0
-229 206 7 0
-230 207 8 0
-231 208 9 0
-232 209 10 0
-233 210 11 0
-234 211 0
-235 212 12 0
-236 213 0
-237 214 0
-238 215 13 0
-239 216 0
-240 217 14 0
-241 218 0
-242 219 0
-15 -16 0
-15 -17 0
-15 -18 0
-15 -19 0
-15 -20 0
-15 -21 0
-15 -22 0
-15 -23 0
-15 -24 0
-15 -25 0
-15 -26 0
-15 -27 0
-15 -28 0
-16 -17 0
-16 -18 0
-16 -19 0
-16 -20 0
-16 -21 0
-16 -22 0
-16 -23 0
-16 -24 0
-16 -25 0
-16 -26 0
-16 -27 0
-16 -28 0
-17 -18 0
-17 -19 0
-17 -20 0
-17 -21 0
-17 -22 0
-17 -23 0
-17 -24 0
-17 -25 0
-17 -26 0
-17 -27 0
-17 -28 0
-18 -19 0
-18 -20 0
-18 -21 0
-18 -22 0
-18 -23 0
-18 -24 0
-18 -25 0
-18 -26 0
-18 -27 0
-18 -28 0
-19 -20 0
-19 -21 0
-19 -22 0
-19 -23 0
-19 -24 0
-19 -25 0
-19 -26 0
-19 -27 0
-19 -28 0
-20 -21 0
-20 -22 0
-20 -23 0
-20 -24 0
-20 -25 0
-20 -26 0
-20 -27 0
-20 -28 0
-21 -22 0
-21 -23 0
-21 -24 0
-21 -25 0
-21 -26 0
-21 -27 0
-21 -28 0
-22 -23 0
-22 -24 0
-22 -25 0
-22 -26 0
-22 -27 0
-22 -28 0
-23 -24 0
-23 -25 0
-23 -26 0
-23 -27 0
-23 -28 0
-24 -25 0
-24 -26 0
-24 -27 0
-24 -28 0
-25 -26 0
-25 -27 0
-25 -28 0
-26 -27 0
-26 -28 0
-27 -28 0
-243 220 15 0
-244 221 16 0
-245 222 0
-246 223 17 0
-247 224 18 0
-248 225 19 0
-249 226 20 0
-250 227 0
-251 228 0
-252 229 21 0
-253 230 22 0
-254 231 23 0
-255 232 24 0
-256 233 25 0
-257 234 0
-258 235 26 0
-259 236 0
-260 237 0
-261 238 27 0
-262 239 0
-263 240 28 0
-264 241 0
-265 242 0
-29 -30 0
-29 -31 0
-29 -32 0
-29 -33 0
-29 -34 0
-29 -35 0
-29 -36 0
-29 -37 0
-29 -38 0
-29 -39 0
-29 -40 0
-29 -41 0
-29 -42 0
-30 -31 0
-30 -32 0
-30 -33 0
-30 -34 0
-30 -35 0
-30 -36 0
-30 -37 0
-30 -38 0
-30 -39 0
-30 -40 0
-30 -41 0
-30 -42 0
-31 -32 0
-31 -33 0
-31 -34 0
-31 -35 0
-31 -36 0
-31 -37 0
-31 -38 0
-31 -39 0
-31 -40 0
-31 -41 0
-31 -42 0
-32 -33 0
-32 -34 0
-32 -35 0
-32 -36 0
-32 -37 0
-32 -38 0
-32 -39 0
-32 -40 0
-32 -41 0
-32 -42 0
-33 -34 0
-33 -35 0
-33 -36 0
-33 -37 0
-33 -38 0
-33 -39 0
-33 -40 0
-33 -41 0
-33 -42 0
-34 -35 0
-34 -36 0
-34 -37 0
-34 -38 0
-34 -39 0
-34 -40 0
-34 -41 0
-34 -42 0
-35 -36 0
-35 -37 0
-35 -38 0
-35 -39 0
-35 -40 0
-35 -41 0
-35 -42 0
-36 -37 0
-36 -38 0
-36 -39 0
-36 -40 0
-36 -41 0
-36 -42 0
-37 -38 0
-37 -39 0
-37 -40 0
-37 -41 0
-37 -42 0
-38 -39 0
-38 -40 0
-38 -41 0
-38 -42 0
-39 -40 0
-39 -41 0
-39 -42 0
-40 -41 0
-40 -42 0
-41 -42 0
-266 243 29 0
-267 244 30 0
-268 245 0
-269 246 31 0
-270 247 32 0
-271 248 33 0
-272 249 34 0
-273 250 0
-274 251 0
-275 252 35 0
-276 253 36 0
-277 254 37 0
-278 255 38 0
-279 256 39 0
-280 257 0
-281 258 40 0
-282 259 0
-283 260 0
-284 261 41 0
-285 262 0
-286 263 42 0
-287 264 0
-288 265 0
-43 -44 0
-43 -45 0
-43 -46 0
-43 -47 0
-43 -48 0
-43 -49 0
-43 -50 0
-43 -51 0
-43 -52 0
-43 -53 0
-43 -54 0
-43 -55 0
-43 -56 0
-44 -45 0
-44 -46 0
-44 -47 0
-44 -48 0
-44 -49 0
-44 -50 0
-44 -51 0
-44 -52 0
-44 -53 0
-44 -54 0
-44 -55 0
-44 -56 0
-45 -46 0
-45 -47 0
-45 -48 0
-45 -49 0
-45 -50 0
-45 -51 0
-45 -52 0
-45 -53 0
-45 -54 0
-45 -55 0
-45 -56 0
-46 -47 0
-46 -48 0
-46 -49 0
-46 -50 0
-46 -51 0
-46 -52 0
-46 -53 0
-46 -54 0
-46 -55 0
-46 -56 0
-47 -48 0
-47 -49 0
-47 -50 0
-47 -51 0
-47 -52 0
-47 -53 0
-47 -54 0
-47 -55 0
-47 -56 0
-48 -49 0
-48 -50 0
-48 -51 0
-48 -52 0
-48 -53 0
-48 -54 0
-48 -55 0
-48 -56 0
-49 -50 0
-49 -51 0
-49 -52 0
-49 -53 0
-49 -54 0
-49 -55 0
-49 -56 0
-50 -51 0
-50 -52 0
-50 -53 0
-50 -54 0
-50 -55 0
-50 -56 0
-51 -52 0
-51 -53 0
-51 -54 0
-51 -55 0
-51 -56 0
-52 -53 0
-52 -54 0
-52 -55 0
-52 -56 0
-53 -54 0
-53 -55 0
-53 -56 0
-54 -55 0
-54 -56 0
-55 -56 0
-289 266 43 0
-290 267 44 0
-291 268 0
-292 269 45 0
-293 270 46 0
-294 271 47 0
-295 272 48 0
-296 273 0
-297 274 0
-298 275 49 0
-299 276 50 0
-300 277 51 0
-301 278 52 0
-302 279 53 0
-303 280 0
-304 281 54 0
-305 282 0
-306 283 0
-307 284 55 0
-308 285 0
-309 286 56 0
-310 287 0
-311 288 0
-57 -58 0
-57 -59 0
-57 -60 0
-57 -61 0
-57 -62 0
-57 -63 0
-57 -64 0
-57 -65 0
-57 -66 0
-57 -67 0
-57 -68 0
-57 -69 0
-57 -70 0
-58 -59 0
-58 -60 0
-58 -61 0
-58 -62 0
-58 -63 0
-58 -64 0
-58 -65 0
-58 -66 0
-58 -67 0
-58 -68 0
-58 -69 0
-58 -70 0
-59 -60 0
-59 -61 0
-59 -62 0
-59 -63 0
-59 -64 0
-59 -65 0
-59 -66 0
-59 -67 0
-59 -68 0
-59 -69 0
-59 -70 0
-60 -61 0
-60 -62 0
-60 -63 0
-60 -64 0
-60 -65 0
-60 -66 0
-60 -67 0
-60 -68 0
-60 -69 0
-60 -70 0
-61 -62 0
-61 -63 0
-61 -64 0
-61 -65 0
-61 -66 0
-61 -67 0
-61 -68 0
-61 -69 0
-61 -70 0
-62 -63 0
-62 -64 0
-62 -65 0
-62 -66 0
-62 -67 0
-62 -68 0
-62 -69 0
-62 -70 0
-63 -64 0
-63 -65 0
-63 -66 0
-63 -67 0
-63 -68 0
-63 -69 0
-63 -70 0
-64 -65 0
-64 -66 0
-64 -67 0
-64 -68 0
-64 -69 0
-64 -70 0
-65 -66 0
-65 -67 0
-65 -68 0
-65 -69 0
-65 -70 0
-66 -67 0
-66 -68 0
-66 -69 0
-66 -70 0
-67 -68 0
-67 -69 0
-67 -70 0
-68 -69 0
-68 -70 0
-69 -70 0
-312 289 57 0
-313 290 58 0
-314 291 0
-315 292 59 0
-316 293 60 0
-317 294 61 0
-318 295 62 0
-319 296 0
-320 297 0
-321 298 63 0
-322 299 64 0
-323 300 65 0
-324 301 66 0
-325 302 67 0
-326 303 0
-327 304 68 0
-328 305 0
-329 306 0
-330 307 69 0
-331 308 0
-332 309 70 0
-333 310 0
-334 311 0
-71 -72 0
-71 -73 0
-71 -74 0
-71 -75 0
-71 -76 0
-71 -77 0
-71 -78 0
-71 -79 0
-71 -80 0
-71 -81 0
-71 -82 0
-71 -83 0
-71 -84 0
-72 -73 0
-72 -74 0
-72 -75 0
-72 -76 0
-72 -77 0
-72 -78 0
-72 -79 0
-72 -80 0
-72 -81 0
-72 -82 0
-72 -83 0
-72 -84 0
-73 -74 0
-73 -75 0
-73 -76 0
-73 -77 0
-73 -78 0
-73 -79 0
-73 -80 0
-73 -81 0
-73 -82 0
-73 -83 0
-73 -84 0
-74 -75 0
-74 -76 0
-74 -77 0
-74 -78 0
-74 -79 0
-74 -80 0
-74 -81 0
-74 -82 0
-74 -83 0
-74 -84 0
-75 -76 0
-75 -77 0
-75 -78 0
-75 -79 0
-75 -80 0
-75 -81 0
-75 -82 0
-75 -83 0
-75 -84 0
-76 -77 0
-76 -78 0
-76 -79 0
-76 -80 0
-76 -81 0
-76 -82 0
-76 -83 0
-76 -84 0
-77 -78 0
-77 -79 0
-77 -80 0
-77 -81 0
-77 -82 0
-77 -83 0
-77 -84 0
-78 -79 0
-78 -80 0
-78 -81 0
-78 -82 0
-78 -83 0
-78 -84 0
-79 -80 0
-79 -81 0
-79 -82 0
-79 -83 0
-79 -84 0
-80 -81 0
-80 -82 0
-80 -83 0
-80 -84 0
-81 -82 0
-81 -83 0
-81 -84 0
-82 -83 0
-82 -84 0
-83 -84 0
-335 312 71 0
-336 313 72 0
-337 314 0
-338 315 73 0
-339 316 74 0
-340 317 75 0
-341 318 76 0
-342 319 0
-343 320 0
-344 321 77 0
-345 322 78 0
-346 323 79 0
-347 324 80 0
-348 325 81 0
-349 326 0
-350 327 82 0
-351 328 0
-352 329 0
-353 330 83 0
-354 331 0
-355 332 84 0
-356 333 0
-357 334 0
-85 -86 0
-85 -87 0
-85 -88 0
-85 -89 0
-85 -90 0
-85 -91 0
-85 -92 0
-85 -93 0
-85 -94 0
-85 -95 0
-85 -96 0
-85 -97 0
-85 -98 0
-86 -87 0
-86 -88 0
-86 -89 0
-86 -90 0
-86 -91 0
-86 -92 0
-86 -93 0
-86 -94 0
-86 -95 0
-86 -96 0
-86 -97 0
-86 -98 0
-87 -88 0
-87 -89 0
-87 -90 0
-87 -91 0
-87 -92 0
-87 -93 0
-87 -94 0
-87 -95 0
-87 -96 0
-87 -97 0
-87 -98 0
-88 -89 0
-88 -90 0
-88 -91 0
-88 -92 0
-88 -93 0
-88 -94 0
-88 -95 0
-88 -96 0
-88 -97 0
-88 -98 0
-89 -90 0
-89 -91 0
-89 -92 0
-89 -93 0
-89 -94 0
-89 -95 0
-89 -96 0
-89 -97 0
-89 -98 0
-90 -91 0
-90 -92 0
-90 -93 0
-90 -94 0
-90 -95 0
-90 -96 0
-90 -97 0
-90 -98 0
-91 -92 0
-91 -93 0
-91 -94 0
-91 -95 0
-91 -96 0
-91 -97 0
-91 -98 0
-92 -93 0
-92 -94 0
-92 -95 0
-92 -96 0
-92 -97 0
-92 -98 0
-93 -94 0
-93 -95 0
-93 -96 0
-93 -97 0
-93 -98 0
-94 -95 0
-94 -96 0
-94 -97 0
-94 -98 0
-95 -96 0
-95 -97 0
-95 -98 0
-96 -97 0
-96 -98 0
-97 -98 0
-358 335 85 0
-359 336 86 0
-360 337 0
-361 338 87 0
-362 339 88 0
-363 340 89 0
-364 341 90 0
-365 342 0
-366 343 0
-367 344 91 0
-368 345 92 0
-369 346 93 0
-370 347 94 0
-371 348 95 0
-372 349 0
-373 350 96 0
-374 351 0
-375 352 0
-376 353 97 0
-377 354 0
-378 355 98 0
-379 356 0
-380 357 0
-99 -100 0
-99 -101 0
-99 -102 0
-99 -103 0
-99 -104 0
-99 -105 0
-99 -106 0
-99 -107 0
-99 -108 0
-99 -109 0
-99 -110 0
-99 -111 0
-99 -112 0
-100 -101 0
-100 -102 0
-100 -103 0
-100 -104 0
-100 -105 0
-100 -106 0
-100 -107 0
-100 -108 0
-100 -109 0
-100 -110 0
-100 -111 0
-100 -112 0
-101 -102 0
-101 -103 0
-101 -104 0
-101 -105 0
-101 -106 0
-101 -107 0
-101 -108 0
-101 -109 0
-101 -110 0
-101 -111 0
-101 -112 0
-102 -103 0
-102 -104 0
-102 -105 0
-102 -106 0
-102 -107 0
-102 -108 0
-102 -109 0
-102 -110 0
-102 -111 0
-102 -112 0
-103 -104 0
-103 -105 0
-103 -106 0
-103 -107 0
-103 -108 0
-103 -109 0
-103 -110 0
-103 -111 0
-103 -112 0
-104 -105 0
-104 -106 0
-104 -107 0
-104 -108 0
-104 -109 0
-104 -110 0
-104 -111 0
-104 -112 0
-105 -106 0
-105 -107 0
-105 -108 0
-105 -109 0
-105 -110 0
-105 -111 0
-105 -112 0
-106 -107 0
-106 -108 0
-106 -109 0
-106 -110 0
-106 -111 0
-106 -112 0
-107 -108 0
-107 -109 0
-107 -110 0
-107 -111 0
-107 -112 0
-108 -109 0
-108 -110 0
-108 -111 0
-108 -112 0
-109 -110 0
-109 -111 0
-109 -112 0
-110 -111 0
-110 -112 0
-111 -112 0
-381 358 99 0
-382 359 100 0
-383 360 0
-384 361 101 0
-385 362 102 0
-386 363 103 0
-387 364 104 0
-388 365 0
-389 366 0
-390 367 105 0
-391 368 106 0
-392 369 107 0
-393 370 108 0
-394 371 109 0
-395 372 0
-396 373 110 0
-397 374 0
-398 375 0
-399 376 111 0
-400 377 0
-401 378 112 0
-402 379 0
-403 380 0
-113 -114 0
-113 -115 0
-113 -116 0
-113 -117 0
-113 -118 0
-113 -119 0
-113 -120 0
-113 -121 0
-113 -122 0
-113 -123 0
-113 -124 0
-113 -125 0
-113 -126 0
-114 -115 0
-114 -116 0
-114 -117 0
-114 -118 0
-114 -119 0
-114 -120 0
-114 -121 0
-114 -122 0
-114 -123 0
-114 -124 0
-114 -125 0
-114 -126 0
-115 -116 0
-115 -117 0
-115 -118 0
-115 -119 0
-115 -120 0
-115 -121 0
-115 -122 0
-115 -123 0
-115 -124 0
-115 -125 0
-115 -126 0
-116 -117 0
-116 -118 0
-116 -119 0
-116 -120 0
-116 -121 0
-116 -122 0
-116 -123 0
-116 -124 0
-116 -125 0
-116 -126 0
-117 -118 0
-117 -119 0
-117 -120 0
-117 -121 0
-117 -122 0
-117 -123 0
-117 -124 0
-117 -125 0
-117 -126 0
-118 -119 0
-118 -120 0
-118 -121 0
-118 -122 0
-118 -123 0
-118 -124 0
-118 -125 0
-118 -126 0
-119 -120 0
-119 -121 0
-119 -122 0
-119 -123 0
-119 -124 0
-119 -125 0
-119 -126 0
-120 -121 0
-120 -122 0
-120 -123 0
-120 -124 0
-120 -125 0
-120 -126 0
-121 -122 0
-121 -123 0
-121 -124 0
-121 -125 0
-121 -126 0
-122 -123 0
-122 -124 0
-122 -125 0
-122 -126 0
-123 -124 0
-123 -125 0
-123 -126 0
-124 -125 0
-124 -126 0
-125 -126 0
-404 381 113 0
-405 382 114 0
-406 383 0
-407 384 115 0
-408 385 116 0
-409 386 117 0
-410 387 118 0
-411 388 0
-412 389 0
-413 390 119 0
-414 391 120 0
-415 392 121 0
-416 393 122 0
-417 394 123 0
-418 395 0
-419 396 124 0
-420 397 0
-421 398 0
-422 399 125 0
-423 400 0
-424 401 126 0
-425 402 0
-426 403 0
-127 -128 0
-127 -129 0
-127 -130 0
-127 -131 0
-127 -132 0
-127 -133 0
-127 -134 0
-127 -135 0
-127 -136 0
-127 -137 0
-127 -138 0
-127 -139 0
-127 -140 0
-128 -129 0
-128 -130 0
-128 -131 0
-128 -132 0
-128 -133 0
-128 -134 0
-128 -135 0
-128 -136 0
-128 -137 0
-128 -138 0
-128 -139 0
-128 -140 0
-129 -130 0
-129 -131 0
-129 -132 0
-129 -133 0
-129 -134 0
-129 -135 0
-129 -136 0
-129 -137 0
-129 -138 0
-129 -139 0
-129 -140 0
-130 -131 0
-130 -132 0
-130 -133 0
-130 -134 0
-130 -135 0
-130 -136 0
-130 -137 0
-130 -138 0
-130 -139 0
-130 -140 0
-131 -132 0
-131 -133 0
-131 -134 0
-131 -135 0
-131 -136 0
-131 -137 0
-131 -138 0
-131 -139 0
-131 -140 0
-132 -133 0
-132 -134 0
-132 -135 0
-132 -136 0
-132 -137 0
-132 -138 0
-132 -139 0
-132 -140 0
-133 -134 0
-133 -135 0
-133 -136 0
-133 -137 0
-133 -138 0
-133 -139 0
-133 -140 0
-134 -135 0
-134 -136 0
-134 -137 0
-134 -138 0
-134 -139 0
-134 -140 0
-135 -136 0
-135 -137 0
-135 -138 0
-135 -139 0
-135 -140 0
-136 -137 0
-136 -138 0
-136 -139 0
-136 -140 0
-137 -138 0
-137 -139 0
-137 -140 0
-138 -139 0
-138 -140 0
-139 -140 0
-427 404 127 0
-428 405 128 0
-429 406 0
-430 407 129 0
-431 408 130 0
-432 409 131 0
-433 410 132 0
-434 411 0
-435 412 0
-436 413 133 0
-437 414 134 0
-438 415 135 0
-439 416 136 0
-440 417 137 0
-441 418 0
-442 419 138 0
-443 420 0
-444 421 0
-445 422 139 0
-446 423 0
-447 424 140 0
-448 425 0
-449 426 0
-141 -142 0
-141 -143 0
-141 -144 0
-141 -145 0
-141 -146 0
-141 -147 0
-141 -148 0
-141 -149 0
-141 -150 0
-141 -151 0
-141 -152 0
-141 -153 0
-141 -154 0
-142 -143 0
-142 -144 0
-142 -145 0
-142 -146 0
-142 -147 0
-142 -148 0
-142 -149 0
-142 -150 0
-142 -151 0
-142 -152 0
-142 -153 0
-142 -154 0
-143 -144 0
-143 -145 0
-143 -146 0
-143 -147 0
-143 -148 0
-143 -149 0
-143 -150 0
-143 -151 0
-143 -152 0
-143 -153 0
-143 -154 0
-144 -145 0
-144 -146 0
-144 -147 0
-144 -148 0
-144 -149 0
-144 -150 0
-144 -151 0
-144 -152 0
-144 -153 0
-144 -154 0
-145 -146 0
-145 -147 0
-145 -148 0
-145 -149 0
-145 -150 0
-145 -151 0
-145 -152 0
-145 -153 0
-145 -154 0
-146 -147 0
-146 -148 0
-146 -149 0
-146 -150 0
-146 -151 0
-146 -152 0
-146 -153 0
-146 -154 0
-147 -148 0
-147 -149 0
-147 -150 0
-147 -151 0
-147 -152 0
-147 -153 0
-147 -154 0
-148 -149 0
-148 -150 0
-148 -151 0
-148 -152 0
-148 -153 0
-148 -154 0
-149 -150 0
-149 -151 0
-149 -152 0
-149 -153 0
-149 -154 0
-150 -151 0
-150 -152 0
-150 -153 0
-150 -154 0
-151 -152 0
-151 -153 0
-151 -154 0
-152 -153 0
-152 -154 0
-153 -154 0
-450 427 141 0
-451 428 142 0
-452 429 0
-453 430 143 0
-454 431 144 0
-455 432 145 0
-456 433 146 0
-457 434 0
-458 435 0
-459 436 147 0
-460 437 148 0
-461 438 149 0
-462 439 150 0
-463 440 151 0
-464 441 0
-465 442 152 0
-466 443 0
-467 444 0
-468 445 153 0
-469 446 0
-470 447 154 0
-471 448 0
-472 449 0
-155 -156 0
-155 -157 0
-155 -158 0
-155 -159 0
-155 -160 0
-155 -161 0
-155 -162 0
-155 -163 0
-155 -164 0
-155 -165 0
-155 -166 0
-155 -167 0
-155 -168 0
-156 -157 0
-156 -158 0
-156 -159 0
-156 -160 0
-156 -161 0
-156 -162 0
-156 -163 0
-156 -164 0
-156 -165 0
-156 -166 0
-156 -167 0
-156 -168 0
-157 -158 0
-157 -159 0
-157 -160 0
-157 -161 0
-157 -162 0
-157 -163 0
-157 -164 0
-157 -165 0
-157 -166 0
-157 -167 0
-157 -168 0
-158 -159 0
-158 -160 0
-158 -161 0
-158 -162 0
-158 -163 0
-158 -164 0
-158 -165 0
-158 -166 0
-158 -167 0
-158 -168 0
-159 -160 0
-159 -161 0
-159 -162 0
-159 -163 0
-159 -164 0
-159 -165 0
-159 -166 0
-159 -167 0
-159 -168 0
-160 -161 0
-160 -162 0
-160 -163 0
-160 -164 0
-160 -165 0
-160 -166 0
-160 -167 0
-160 -168 0
-161 -162 0
-161 -163 0
-161 -164 0
-161 -165 0
-161 -166 0
-161 -167 0
-161 -168 0
-162 -163 0
-162 -164 0
-162 -165 0
-162 -166 0
-162 -167 0
-162 -168 0
-163 -164 0
-163 -165 0
-163 -166 0
-163 -167 0
-163 -168 0
-164 -165 0
-164 -166 0
-164 -167 0
-164 -168 0
-165 -166 0
-165 -167 0
-165 -168 0
-166 -167 0
-166 -168 0
-167 -168 0
-473 450 155 0
-474 451 156 0
-475 452 0
-476 453 157 0
-477 454 158 0
-478 455 159 0
-479 456 160 0
-480 457 0
-481 458 0
-482 459 161 0
-483 460 162 0
-484 461 163 0
-485 462 164 0
-486 463 165 0
-487 464 0
-488 465 166 0
-489 466 0
-490 467 0
-491 468 167 0
-492 469 0
-493 470 168 0
-494 471 0
-495 472 0
-169 -170 0
-169 -171 0
-169 -172 0
-169 -173 0
-169 -174 0
-169 -175 0
-169 -176 0
-169 -177 0
-169 -178 0
-169 -179 0
-169 -180 0
-169 -181 0
-169 -182 0
-170 -171 0
-170 -172 0
-170 -173 0
-170 -174 0
-170 -175 0
-170 -176 0
-170 -177 0
-170 -178 0
-170 -179 0
-170 -180 0
-170 -181 0
-170 -182 0
-171 -172 0
-171 -173 0
-171 -174 0
-171 -175 0
-171 -176 0
-171 -177 0
-171 -178 0
-171 -179 0
-171 -180 0
-171 -181 0
-171 -182 0
-172 -173 0
-172 -174 0
-172 -175 0
-172 -176 0
-172 -177 0
-172 -178 0
-172 -179 0
-172 -180 0
-172 -181 0
-172 -182 0
-173 -174 0
-173 -175 0
-173 -176 0
-173 -177 0
-173 -178 0
-173 -179 0
-173 -180 0
-173 -181 0
-173 -182 0
-174 -175 0
-174 -176 0
-174 -177 0
-174 -178 0
-174 -179 0
-174 -180 0
-174 -181 0
-174 -182 0
-175 -176 0
-175 -177 0
-175 -178 0
-175 -179 0
-175 -180 0
-175 -181 0
-175 -182 0
-176 -177 0
-176 -178 0
-176 -179 0
-176 -180 0
-176 -181 0
-176 -182 0
-177 -178 0
-177 -179 0
-177 -180 0
-177 -181 0
-177 -182 0
-178 -179 0
-178 -180 0
-178 -181 0
-178 -182 0
-179 -180 0
-179 -181 0
-179 -182 0
-180 -181 0
-180 -182 0
-181 -182 0
-496 473 169 0
-497 474 170 0
-498 475 0
-499 476 171 0
-500 477 172 0
-501 478 173 0
-502 479 174 0
-503 480 0
-504 481 0
-505 482 175 0
-506 483 176 0
-507 484 177 0
-508 485 178 0
-509 486 179 0
-510 487 0
-511 488 180 0
-512 489 0
-513 490 0
-514 491 181 0
-515 492 0
-516 493 182 0
-517 494 0
-518 495 0
-183 -184 0
-183 -185 0
-183 -186 0
-183 -187 0
-183 -188 0
-183 -189 0
-183 -190 0
-183 -191 0
-183 -192 0
-183 -193 0
-183 -194 0
-183 -195 0
-183 -196 0
-184 -185 0
-184 -186 0
-184 -187 0
-184 -188 0
-184 -189 0
-184 -190 0
-184 -191 0
-184 -192 0
-184 -193 0
-184 -194 0
-184 -195 0
-184 -196 0
-185 -186 0
-185 -187 0
-185 -188 0
-185 -189 0
-185 -190 0
-185 -191 0
-185 -192 0
-185 -193 0
-185 -194 0
-185 -195 0
-185 -196 0
-186 -187 0
-186 -188 0
-186 -189 0
-186 -190 0
-186 -191 0
-186 -192 0
-186 -193 0
-186 -194 0
-186 -195 0
-186 -196 0
-187 -188 0
-187 -189 0
-187 -190 0
-187 -191 0
-187 -192 0
-187 -193 0
-187 -194 0
-187 -195 0
-187 -196 0
-188 -189 0
-188 -190 0
-188 -191 0
-188 -192 0
-188 -193 0
-188 -194 0
-188 -195 0
-188 -196 0
-189 -190 0
-189 -191 0
-189 -192 0
-189 -193 0
-189 -194 0
-189 -195 0
-189 -196 0
-190 -191 0
-190 -192 0
-190 -193 0
-190 -194 0
-190 -195 0
-190 -196 0
-191 -192 0
-191 -193 0
-191 -194 0
-191 -195 0
-191 -196 0
-192 -193 0
-192 -194 0
-192 -195 0
-192 -196 0
-193 -194 0
-193 -195 0
-193 -196 0
-194 -195 0
-194 -196 0
-195 -196 0
-519 496 183 0
-520 497 184 0
-521 498 0
-522 499 185 0
-523 500 186 0
-524 501 187 0
-525 502 188 0
-526 503 0
-527 504 0
-528 505 189 0
-529 506 190 0
-530 507 191 0
-531 508 192 0
-532 509 193 0
-533 510 0
-534 511 194 0
-535 512 0
-536 513 0
-537 514 195 0
-538 515 0
-539 516 196 0
-540 517 0
-541 518 0
-197 0
-198 0
199 0
-200 0
-201 0
-202 0
-203 0
204 0
205 0
-206 0
-207 0
-208 0
-209 0
-210 0
211 0
-212 0
213 0
214 0
-215 0
216 0
-217 0
218 0
219 0
1 15 29 43 57 71 85 99 113 127 141 155 169 183 0
2 16 30 44 58 72 86 100 114 128 142 156 170 184 0
3 17 31 45 59 73 87 101 115 129 143 157 171 185 0
4 18 32 46 60 74 88 102 116 130 144 158 172 186 0
5 19 33 47 61 75 89 103 117 131 145 159 173 187 0
6 20 34 48 62 76 90 104 118 132 146 160 174 188 0
7 21 35 49 63 77 91 105 119 133 147 161 175 189 0
8 22 36 50 64 78 92 106 120 134 148 162 176 190 0
9 23 37 51 65 79 93 107 121 135 149 163 177 191 0
10 24 38 52 66 80 94 108 122 136 150 164 178 192 0
11 25 39 53 67 81 95 109 123 137 151 165 179 193 0
12 26 40 54 68 82 96 110 124 138 152 166 180 194 0
13 27 41 55 69 83 97 111 125 139 153 167 181 195 0
14 28 42 56 70 84 98 112 126 140 154 168 182 196 0
-1 0
-2 0
-542 199 0
-542 216 0
-543 199 0
-543 216 0
-544 201 0
-544 218 0
-545 201 0
-545 218 0
-3 542 543 544 545 0
-546 199 0
-546 215 0
-547 199 0
-547 215 0
-548 200 0
-548 218 0
-549 200 0
-549 218 0
-4 546 547 548 549 0
-550 199 0
-550 211 0
-551 199 0
-551 211 0
-552 203 0
-552 213 0
-553 203 0
-553 213 0
-5 550 551 552 553 0
-554 199 0
-554 210 0
-555 199 0
-555 210 0
-556 202 0
-556 213 0
-557 202 0
-557 213 0
-6 554 555 556 557 0
-558 205 0
-558 219 0
-559 205 0
-559 219 0
-560 207 0
-560 218 0
-561 207 0
-561 218 0
-7 558 559 560 561 0
-562 205 0
-562 217 0
-563 205 0
-563 217 0
-564 206 0
-564 218 0
-565 206 0
-565 218 0
-8 562 563 564 565 0
-566 205 0
-566 214 0
-567 205 0
-567 214 0
-568 209 0
-568 213 0
-569 209 0
-569 213 0
-9 566 567 568 569 0
-570 205 0
-570 212 0
-571 205 0
-571 212 0
-572 208 0
-572 213 0
-573 208 0
-573 213 0
-10 570 571 572 573 0
-574 199 0
-574 203 0
-575 199 0
-575 203 0
-576 211 0
-576 213 0
-577 211 0
-577 213 0
-11 574 575 576 577 0
-578 205 0
-578 209 0
-579 205 0
-579 209 0
-580 213 0
-580 214 0
-581 213 0
-581 214 0
-12 578 579 580 581 0
-582 199 0
-582 201 0
-583 199 0
-583 201 0
-584 216 0
-584 218 0
-585 216 0
-585 218 0
-13 582 583 584 585 0
-586 205 0
-586 207 0
-587 205 0
-587 207 0
-588 218 0
-588 219 0
-589 218 0
-589 219 0
-14 586 587 588 589 0
-15 0
-16 0
-590 222 0
-590 239 0
-591 222 0
-591 239 0
-592 224 0
-592 241 0
-593 224 0
-593 241 0
-17 590 591 592 593 0
-594 222 0
-594 238 0
-595 222 0
-595 238 0
-596 223 0
-596 241 0
-597 223 0
-597 241 0
-18 594 595 596 597 0
-598 222 0
-598 234 0
-599 222 0
-599 234 0
-600 226 0
-600 236 0
-601 226 0
-601 236 0
-19 598 599 600 601 0
-602 222 0
-602 233 0
-603 222 0
-603 233 0
-604 225 0
-604 236 0
-605 225 0
-605 236 0
-20 602 603 604 605 0
-606 228 0
-606 242 0
-607 228 0
-607 242 0
-608 230 0
-608 241 0
-609 230 0
-609 241 0
-21 606 607 608 609 0
-610 228 0
-610 240 0
-611 228 0
-611 240 0
-612 229 0
-612 241 0
-613 229 0
-613 241 0
-22 610 611 612 613 0
-614 228 0
-614 237 0
-615 228 0
-615 237 0
-616 232 0
-616 236 0
-617 232 0
-617 236 0
-23 614 615 616 617 0
-618 228 0
-618 235 0
-619 228 0
-619 235 0
-620 231 0
-620 236 0
-621 231 0
-621 236 0
-24 618 619 620 621 0
-622 222 0
-622 226 0
-623 222 0
-623 226 0
-624 234 0
-624 236 0
-625 234 0
-625 236 0
-25 622 623 624 625 0
-626 228 0
-626 232 0
-627 228 0
-627 232 0
-628 236 0
-628 237 0
-629 236 0
-629 237 0
-26 626 627 628 629 0
-630 222 0
-630 224 0
-631 222 0
-631 224 0
-632 239 0
-632 241 0
-633 239 0
-633 241 0
-27 630 631 632 633 0
-634 228 0
-634 230 0
-635 228 0
-635 230 0
-636 241 0
-636 242 0
-637 241 0
-637 242 0
-28 634 635 636 637 0
-29 0
-30 0
-638 245 0
-638 262 0
-639 245 0
-639 262 0
-640 247 0
-640 264 0
-641 247 0
-641 264 0
-31 638 639 640 641 0
-642 245 0
-642 261 0
-643 245 0
-643 261 0
-644 246 0
-644 264 0
-645 246 0
-645 264 0
-32 642 643 644 645 0
-646 245 0
-646 257 0
-647 245 0
-647 257 0
-648 249 0
-648 259 0
-649 249 0
-649 259 0
-33 646 647 648 649 0
-650 245 0
-650 256 0
-651 245 0
-651 256 0
-652 248 0
-652 259 0
-653 248 0
-653 259 0
-34 650 651 652 653 0
-654 251 0
-654 265 0
-655 251 0
-655 265 0
-656 253 0
-656 264 0
-657 253 0
-657 264 0
-35 654 655 656 657 0
-658 251 0
-658 263 0
-659 251 0
-659 263 0
-660 252 0
-660 264 0
-661 252 0
-661 264 0
-36 658 659 660 661 0
-662 251 0
-662 260 0
-663 251 0
-663 260 0
-664 255 0
-664 259 0
-665 255 0
-665 259 0
-37 662 663 664 665 0
-666 251 0
-666 258 0
-667 251 0
-667 258 0
-668 254 0
-668 259 0
-669 254 0
-669 259 0
-38 666 667 668 669 0
-670 245 0
-670 249 0
-671 245 0
-671 249 0
-672 257 0
-672 259 0
-673 257 0
-673 259 0
-39 670 671 672 673 0
-674 251 0
-674 255 0
-675 251 0
-675 255 0
-676 259 0
-676 260 0
-677 259 0
-677 260 0
-40 674 675 676 677 0
-678 245 0
-678 247 0
-679 245 0
-679 247 0
-680 262 0
-680 264 0
-681 262 0
-681 264 0
-41 678 679 680 681 0
-682 251 0
-682 253 0
-683 251 0
-683 253 0
-684 264 0
-684 265 0
-685 264 0
-685 265 0
-42 682 683 684 685 0
-43 0
-44 0
-686 268 0
-686 285 0
-687 268 0
-687 285 0
-688 270 0
-688 287 0
-689 270 0
-689 287 0
-45 686 687 688 689 0
-690 268 0
-690 284 0
-691 268 0
-691 284 0
-692 269 0
-692 287 0
-693 269 0
-693 287 0
-46 690 691 692 693 0
-694 268 0
-694 280 0
-695 268 0
-695 280 0
-696 272 0
-696 282 0
-697 272 0
-697 282 0
-47 694 695 696 697 0
-698 268 0
-698 279 0
-699 268 0
-699 279 0
-700 271 0
-700 282 0
-701 271 0
-701 282 0
-48 698 699 700 701 0
-702 274 0
-702 288 0
-703 274 0
-703 288 0
-704 276 0
-704 287 0
-705 276 0
-705 287 0
-49 702 703 704 705 0
-706 274 0
-706 286 0
-707 274 0
-707 286 0
-708 275 0
-708 287 0
-709 275 0
-709 287 0
-50 706 707 708 709 0
-710 274 0
-710 283 0
-711 274 0
-711 283 0
-712 278 0
-712 282 0
-713 278 0
-713 282 0
-51 710 711 712 713 0
-714 274 0
-714 281 0
-715 274 0
-715 281 0
-716 277 0
-716 282 0
-717 277 0
-717 282 0
-52 714 715 716 717 0
-718 268 0
-718 272 0
-719 268 0
-719 272 0
-720 280 0
-720 282 0
-721 280 0
-721 282 0
-53 718 719 720 721 0
-722 274 0
-722 278 0
-723 274 0
-723 278 0
-724 282 0
-724 283 0
-725 282 0
-725 283 0
-54 722 723 724 725 0
-726 268 0
-726 270 0
-727 268 0
-727 270 0
-728 285 0
-728 287 0
-729 285 0
-729 287 0
-55 726 727 728 729 0
-730 274 0
-730 276 0
-731 274 0
-731 276 0
-732 287 0
-732 288 0
-733 287 0
-733 288 0
-56 730 731 732 733 0
-57 0
-58 0
-734 291 0
-734 308 0
-735 291 0
-735 308 0
-736 293 0
-736 310 0
-737 293 0
-737 310 0
-59 734 735 736 737 0
-738 291 0
-738 307 0
-739 291 0
-739 307 0
-740 292 0
-740 310 0
-741 292 0
-741 310 0
-60 738 739 740 741 0
-742 291 0
-742 303 0
-743 291 0
-743 303 0
-744 295 0
-744 305 0
-745 295 0
-745 305 0
-61 742 743 744 745 0
-746 291 0
-746 302 0
-747 291 0
-747 302 0
-748 294 0
-748 305 0
-749 294 0
-749 305 0
-62 746 747 748 749 0
-750 297 0
-750 311 0
-751 297 0
-751 311 0
-752 299 0
-752 310 0
-753 299 0
-753 310 0
-63 750 751 752 753 0
-754 297 0
-754 309 0
-755 297 0
-755 309 0
-756 298 0
-756 310 0
-757 298 0
-757 310 0
-64 754 755 756 757 0
-758 297 0
-758 306 0
-759 297 0
-759 306 0
-760 301 0
-760 305 0
-761 301 0
-761 305 0
-65 758 759 760 761 0
-762 297 0
-762 304 0
-763 297 0
-763 304 0
-764 300 0
-764 305 0
-765 300 0
-765 305 0
-66 762 763 764 765 0
-766 291 0
-766 295 0
-767 291 0
-767 295 0
-768 303 0
-768 305 0
-769 303 0
-769 305 0
-67 766 767 768 769 0
-770 297 0
-770 301 0
-771 297 0
-771 301 0
-772 305 0
-772 306 0
-773 305 0
-773 306 0
-68 770 771 772 773 0
-774 291 0
-774 293 0
-775 291 0
-775 293 0
-776 308 0
-776 310 0
-777 308 0
-777 310 0
-69 774 775 776 777 0
-778 297 0
-778 299 0
-779 297 0
-779 299 0
-780 310 0
-780 311 0
-781 310 0
-781 311 0
-70 778 779 780 781 0
-71 0
-72 0
-782 314 0
-782 331 0
-783 314 0
-783 331 0
-784 316 0
-784 333 0
-785 316 0
-785 333 0
-73 782 783 784 785 0
-786 314 0
-786 330 0
-787 314 0
-787 330 0
-788 315 0
-788 333 0
-789 315 0
-789 333 0
-74 786 787 788 789 0
-790 314 0
-790 326 0
-791 314 0
-791 326 0
-792 318 0
-792 328 0
-793 318 0
-793 328 0
-75 790 791 792 793 0
-794 314 0
-794 325 0
-795 314 0
-795 325 0
-796 317 0
-796 328 0
-797 317 0
-797 328 0
-76 794 795 796 797 0
-798 320 0
-798 334 0
-799 320 0
-799 334 0
-800 322 0
-800 333 0
-801 322 0
-801 333 0
-77 798 799 800 801 0
-802 320 0
-802 332 0
-803 320 0
-803 332 0
-804 321 0
-804 333 0
-805 321 0
-805 333 0
-78 802 803 804 805 0
-806 320 0
-806 329 0
-807 320 0
-807 329 0
-808 324 0
-808 328 0
-809 324 0
-809 328 0
-79 806 807 808 809 0
-810 320 0
-810 327 0
-811 320 0
-811 327 0
-812 323 0
-812 328 0
-813 323 0
-813 328 0
-80 810 811 812 813 0
-814 314 0
-814 318 0
-815 314 0
-815 318 0
-816 326 0
-816 328 0
-817 326 0
-817 328 0
-81 814 815 816 817 0
-818 320 0
-818 324 0
-819 320 0
-819 324 0
-820 328 0
-820 329 0
-821 328 0
-821 329 0
-82 818 819 820 821 0
-822 314 0
-822 316 0
-823 314 0
-823 316 0
-824 331 0
-824 333 0
-825 331 0
-825 333 0
-83 822 823 824 825 0
-826 320 0
-826 322 0
-827 320 0
-827 322 0
-828 333 0
-828 334 0
-829 333 0
-829 334 0
-84 826 827 828 829 0
-85 0
-86 0
-830 337 0
-830 354 0
-831 337 0
-831 354 0
-832 339 0
-832 356 0
-833 339 0
-833 356 0
-87 830 831 832 833 0
-834 337 0
-834 353 0
-835 337 0
-835 353 0
-836 338 0
-836 356 0
-837 338 0
-837 356 0
-88 834 835 836 837 0
-838 337 0
-838 349 0
-839 337 0
-839 349 0
-840 341 0
-840 351 0
-841 341 0
-841 351 0
-89 838 839 840 841 0
-842 337 0
-842 348 0
-843 337 0
-843 348 0
-844 340 0
-844 351 0
-845 340 0
-845 351 0
-90 842 843 844 845 0
-846 343 0
-846 357 0
-847 343 0
-847 357 0
-848 345 0
-848 356 0
-849 345 0
-849 356 0
-91 846 847 848 849 0
-850 343 0
-850 355 0
-851 343 0
-851 355 0
-852 344 0
-852 356 0
-853 344 0
-853 356 0
-92 850 851 852 853 0
-854 343 0
-854 352 0
-855 343 0
-855 352 0
-856 347 0
-856 351 0
-857 347 0
-857 351 0
-93 854 855 856 857 0
-858 343 0
-858 350 0
-859 343 0
-859 350 0
-860 346 0
-860 351 0
-861 346 0
-861 351 0
-94 858 859 860 861 0
-862 337 0
-862 341 0
-863 337 0
-863 341 0
-864 349 0
-864 351 0
-865 349 0
-865 351 0
-95 862 863 864 865 0
-866 343 0
-866 347 0
-867 343 0
-867 347 0
-868 351 0
-868 352 0
-869 351 0
-869 352 0
-96 866 867 868 869 0
-870 337 0
-870 339 0
-871 337 0
-871 339 0
-872 354 0
-872 356 0
-873 354 0
-873 356 0
-97 870 871 872 873 0
-874 343 0
-874 345 0
-875 343 0
-875 345 0
-876 356 0
-876 357 0
-877 356 0
-877 357 0
-98 874 875 876 877 0
-99 0
-100 0
-878 360 0
-878 377 0
-879 360 0
-879 377 0
-880 362 0
-880 379 0
-881 362 0
-881 379 0
-101 878 879 880 881 0
-882 360 0
-882 376 0
-883 360 0
-883 376 0
-884 361 0
-884 379 0
-885 361 0
-885 379 0
-102 882 883 884 885 0
-886 360 0
-886 372 0
-887 360 0
-887 372 0
-888 364 0
-888 374 0
-889 364 0
-889 374 0
-103 886 887 888 889 0
-890 360 0
-890 371 0
-891 360 0
-891 371 0
-892 363 0
-892 374 0
-893 363 0
-893 374 0
-104 890 891 892 893 0
-894 366 0
-894 380 0
-895 366 0
-895 380 0
-896 368 0
-896 379 0
-897 368 0
-897 379 0
-105 894 895 896 897 0
-898 366 0
-898 378 0
-899 366 0
-899 378 0
-900 367 0
-900 379 0
-901 367 0
-901 379 0
-106 898 899 900 901 0
-902 366 0
-902 375 0
-903 366 0
-903 375 0
-904 370 0
-904 374 0
-905 370 0
-905 374 0
-107 902 903 904 905 0
-906 366 0
-906 373 0
-907 366 0
-907 373 0
-908 369 0
-908 374 0
-909 369 0
-909 374 0
-108 906 907 908 909 0
-910 360 0
-910 364 0
-911 360 0
-911 364 0
-912 372 0
-912 374 0
-913 372 0
-913 374 0
-109 910 911 912 913 0
-914 366 0
-914 370 0
-915 366 0
-915 370 0
-916 374 0
-916 375 0
-917 374 0
-917 375 0
-110 914 915 916 917 0
-918 360 0
-918 362 0
-919 360 0
-919 362 0
-920 377 0
-920 379 0
-921 377 0
-921 379 0
-111 918 919 920 921 0
-922 366 0
-922 368 0
-923 366 0
-923 368 0
-924 379 0
-924 380 0
-925 379 0
-925 380 0
-112 922 923 924 925 0
-113 0
-114 0
-926 383 0
-926 400 0
-927 383 0
-927 400 0
-928 385 0
-928 402 0
-929 385 0
-929 402 0
-115 926 927 928 929 0
-930 383 0
-930 399 0
-931 383 0
-931 399 0
-932 384 0
-932 402 0
-933 384 0
-933 402 0
-116 930 931 932 933 0
-934 383 0
-934 395 0
-935 383 0
-935 395 0
-936 387 0
-936 397 0
-937 387 0
-937 397 0
-117 934 935 936 937 0
-938 383 0
-938 394 0
-939 383 0
-939 394 0
-940 386 0
-940 397 0
-941 386 0
-941 397 0
-118 938 939 940 941 0
-942 389 0
-942 403 0
-943 389 0
-943 403 0
-944 391 0
-944 402 0
-945 391 0
-945 402 0
-119 942 943 944 945 0
-946 389 0
-946 401 0
-947 389 0
-947 401 0
-948 390 0
-948 402 0
-949 390 0
-949 402 0
-120 946 947 948 949 0
-950 389 0
-950 398 0
-951 389 0
-951 398 0
-952 393 0
-952 397 0
-953 393 0
-953 397 0
-121 950 951 952 953 0
-954 389 0
-954 396 0
-955 389 0
-955 396 0
-956 392 0
-956 397 0
-957 392 0
-957 397 0
-122 954 955 956 957 0
-958 383 0
-958 387 0
-959 383 0
-959 387 0
-960 395 0
-960 397 0
-961 395 0
-961 397 0
-123 958 959 960 961 0
-962 389 0
-962 393 0
-963 389 0
-963 393 0
-964 397 0
-964 398 0
-965 397 0
-965 398 0
-124 962 963 964 965 0
-966 383 0
-966 385 0
-967 383 0
-967 385 0
-968 400 0
-968 402 0
-969 400 0
-969 402 0
-125 966 967 968 969 0
-970 389 0
-970 391 0
-971 389 0
-971 391 0
-972 402 0
-972 403 0
-973 402 0
-973 403 0
-126 970 971 972 973 0
-127 0
-128 0
-974 406 0
-974 423 0
-975 406 0
-975 423 0
-976 408 0
-976 425 0
-977 408 0
-977 425 0
-129 974 975 976 977 0
-978 406 0
-978 422 0
-979 406 0
-979 422 0
-980 407 0
-980 425 0
-981 407 0
-981 425 0
-130 978 979 980 981 0
-982 406 0
-982 418 0
-983 406 0
-983 418 0
-984 410 0
-984 420 0
-985 410 0
-985 420 0
-131 982 983 984 985 0
-986 406 0
-986 417 0
-987 406 0
-987 417 0
-988 409 0
-988 420 0
-989 409 0
-989 420 0
-132 986 987 988 989 0
-990 412 0
-990 426 0
-991 412 0
-991 426 0
-992 414 0
-992 425 0
-993 414 0
-993 425 0
-133 990 991 992 993 0
-994 412 0
-994 424 0
-995 412 0
-995 424 0
-996 413 0
-996 425 0
-997 413 0
-997 425 0
-134 994 995 996 997 0
-998 412 0
-998 421 0
-999 412 0
-999 421 0
-1000 416 0
-1000 420 0
-1001 416 0
-1001 420 0
-135 998 999 1000 1001 0
-1002 412 0
-1002 419 0
-1003 412 0
-1003 419 0
-1004 415 0
-1004 420 0
-1005 415 0
-1005 420 0
-136 1002 1003 1004 1005 0
-1006 406 0
-1006 410 0
-1007 406 0
-1007 410 0
-1008 418 0
-1008 420 0
-1009 418 0
-1009 420 0
-137 1006 1007 1008 1009 0
-1010 412 0
-1010 416 0
-1011 412 0
-1011 416 0
-1012 420 0
-1012 421 0
-1013 420 0
-1013 421 0
-138 1010 1011 1012 1013 0
-1014 406 0
-1014 408 0
-1015 406 0
-1015 408 0
-1016 423 0
-1016 425 0
-1017 423 0
-1017 425 0
-139 1014 1015 1016 1017 0
-1018 412 0
-1018 414 0
-1019 412 0
-1019 414 0
-1020 425 0
-1020 426 0
-1021 425 0
-1021 426 0
-140 1018 1019 1020 1021 0
-141 0
-142 0
-1022 429 0
-1022 446 0
-1023 429 0
-1023 446 0
-1024 431 0
-1024 448 0
-1025 431 0
-1025 448 0
-143 1022 1023 1024 1025 0
-1026 429 0
-1026 445 0
-1027 429 0
-1027 445 0
-1028 430 0
-1028 448 0
-1029 430 0
-1029 448 0
-144 1026 1027 1028 1029 0
-1030 429 0
-1030 441 0
-1031 429 0
-1031 441 0
-1032 433 0
-1032 443 0
-1033 433 0
-1033 443 0
-145 1030 1031 1032 1033 0
-1034 429 0
-1034 440 0
-1035 429 0
-1035 440 0
-1036 432 0
-1036 443 0
-1037 432 0
-1037 443 0
-146 1034 1035 1036 1037 0
-1038 435 0
-1038 449 0
-1039 435 0
-1039 449 0
-1040 437 0
-1040 448 0
-1041 437 0
-1041 448 0
-147 1038 1039 1040 1041 0
-1042 435 0
-1042 447 0
-1043 435 0
-1043 447 0
-1044 436 0
-1044 448 0
-1045 436 0
-1045 448 0
-148 1042 1043 1044 1045 0
-1046 435 0
-1046 444 0
-1047 435 0
-1047 444 0
-1048 439 0
-1048 443 0
-1049 439 0
-1049 443 0
-149 1046 1047 1048 1049 0
-1050 435 0
-1050 442 0
-1051 435 0
-1051 442 0
-1052 438 0
-1052 443 0
-1053 438 0
-1053 443 0
-150 1050 1051 1052 1053 0
-1054 429 0
-1054 433 0
-1055 429 0
-1055 433 0
-1056 441 0
-1056 443 0
-1057 441 0
-1057 443 0
-151 1054 1055 1056 1057 0
-1058 435 0
-1058 439 0
-1059 435 0
-1059 439 0
-1060 443 0
-1060 444 0
-1061 443 0
-1061 444 0
-152 1058 1059 1060 1061 0
-1062 429 0
-1062 431 0
-1063 429 0
-1063 431 0
-1064 446 0
-1064 448 0
-1065 446 0
-1065 448 0
-153 1062 1063 1064 1065 0
-1066 435 0
-1066 437 0
-1067 435 0
-1067 437 0
-1068 448 0
-1068 449 0
-1069 448 0
-1069 449 0
-154 1066 1067 1068 1069 0
-155 0
-156 0
-1070 452 0
-1070 469 0
-1071 452 0
-1071 469 0
-1072 454 0
-1072 471 0
-1073 454 0
-1073 471 0
-157 1070 1071 1072 1073 0
-1074 452 0
-1074 468 0
-1075 452 0
-1075 468 0
-1076 453 0
-1076 471 0
-1077 453 0
-1077 471 0
-158 1074 1075 1076 1077 0
-1078 452 0
-1078 464 0
-1079 452 0
-1079 464 0
-1080 456 0
-1080 466 0
-1081 456 0
-1081 466 0
-159 1078 1079 1080 1081 0
-1082 452 0
-1082 463 0
-1083 452 0
-1083 463 0
-1084 455 0
-1084 466 0
-1085 455 0
-1085 466 0
-160 1082 1083 1084 1085 0
-1086 458 0
-1086 472 0
-1087 458 0
-1087 472 0
-1088 460 0
-1088 471 0
-1089 460 0
-1089 471 0
-161 1086 1087 1088 1089 0
-1090 458 0
-1090 470 0
-1091 458 0
-1091 470 0
-1092 459 0
-1092 471 0
-1093 459 0
-1093 471 0
-162 1090 1091 1092 1093 0
-1094 458 0
-1094 467 0
-1095 458 0
-1095 467 0
-1096 462 0
-1096 466 0
-1097 462 0
-1097 466 0
-163 1094 1095 1096 1097 0
-1098 458 0
-1098 465 0
-1099 458 0
-1099 465 0
-1100 461 0
-1100 466 0
-1101 461 0
-1101 466 0
-164 1098 1099 1100 1101 0
-1102 452 0
-1102 456 0
-1103 452 0
-1103 456 0
-1104 464 0
-1104 466 0
-1105 464 0
-1105 466 0
-165 1102 1103 1104 1105 0
-1106 458 0
-1106 462 0
-1107 458 0
-1107 462 0
-1108 466 0
-1108 467 0
-1109 466 0
-1109 467 0
-166 1106 1107 1108 1109 0
-1110 452 0
-1110 454 0
-1111 452 0
-1111 454 0
-1112 469 0
-1112 471 0
-1113 469 0
-1113 471 0
-167 1110 1111 1112 1113 0
-1114 458 0
-1114 460 0
-1115 458 0
-1115 460 0
-1116 471 0
-1116 472 0
-1117 471 0
-1117 472 0
-168 1114 1115 1116 1117 0
-169 0
-170 0
-1118 475 0
-1118 492 0
-1119 475 0
-1119 492 0
-1120 477 0
-1120 494 0
-1121 477 0
-1121 494 0
-171 1118 1119 1120 1121 0
-1122 475 0
-1122 491 0
-1123 475 0
-1123 491 0
-1124 476 0
-1124 494 0
-1125 476 0
-1125 494 0
-172 1122 1123 1124 1125 0
-1126 475 0
-1126 487 0
-1127 475 0
-1127 487 0
-1128 479 0
-1128 489 0
-1129 479 0
-1129 489 0
-173 1126 1127 1128 1129 0
-1130 475 0
-1130 486 0
-1131 475 0
-1131 486 0
-1132 478 0
-1132 489 0
-1133 478 0
-1133 489 0
-174 1130 1131 1132 1133 0
-1134 481 0
-1134 495 0
-1135 481 0
-1135 495 0
-1136 483 0
-1136 494 0
-1137 483 0
-1137 494 0
-175 1134 1135 1136 1137 0
-1138 481 0
-1138 493 0
-1139 481 0
-1139 493 0
-1140 482 0
-1140 494 0
-1141 482 0
-1141 494 0
-176 1138 1139 1140 1141 0
-1142 481 0
-1142 490 0
-1143 481 0
-1143 490 0
-1144 485 0
-1144 489 0
-1145 485 0
-1145 489 0
-177 1142 1143 1144 1145 0
-1146 481 0
-1146 488 0
-1147 481 0
-1147 488 0
-1148 484 0
-1148 489 0
-1149 484 0
-1149 489 0
-178 1146 1147 1148 1149 0
-1150 475 0
-1150 479 0
-1151 475 0
-1151 479 0
-1152 487 0
-1152 489 0
-1153 487 0
-1153 489 0
-179 1150 1151 1152 1153 0
-1154 481 0
-1154 485 0
-1155 481 0
-1155 485 0
-1156 489 0
-1156 490 0
-1157 489 0
-1157 490 0
-180 1154 1155 1156 1157 0
-1158 475 0
-1158 477 0
-1159 475 0
-1159 477 0
-1160 492 0
-1160 494 0
-1161 492 0
-1161 494 0
-181 1158 1159 1160 1161 0
-1162 481 0
-1162 483 0
-1163 481 0
-1163 483 0
-1164 494 0
-1164 495 0
-1165 494 0
-1165 495 0
-182 1162 1163 1164 1165 0
-183 0
-184 0
-1166 498 0
-1166 515 0
-1167 498 0
-1167 515 0
-1168 500 0
-1168 517 0
-1169 500 0
-1169 517 0
-185 1166 1167 1168 1169 0
-1170 498 0
-1170 514 0
-1171 498 0
-1171 514 0
-1172 499 0
-1172 517 0
-1173 499 0
-1173 517 0
-186 1170 1171 1172 1173 0
-1174 498 0
-1174 510 0
-1175 498 0
-1175 510 0
-1176 502 0
-1176 512 0
-1177 502 0
-1177 512 0
-187 1174 1175 1176 1177 0
-1178 498 0
-1178 509 0
-1179 498 0
-1179 509 0
-1180 501 0
-1180 512 0
-1181 501 0
-1181 512 0
-188 1178 1179 1180 1181 0
-1182 504 0
-1182 518 0
-1183 504 0
-1183 518 0
-1184 506 0
-1184 517 0
-1185 506 0
-1185 517 0
-189 1182 1183 1184 1185 0
-1186 504 0
-1186 516 0
-1187 504 0
-1187 516 0
-1188 505 0
-1188 517 0
-1189 505 0
-1189 517 0
-190 1186 1187 1188 1189 0
-1190 504 0
-1190 513 0
-1191 504 0
-1191 513 0
-1192 508 0
-1192 512 0
-1193 508 0
-1193 512 0
-191 1190 1191 1192 1193 0
-1194 504 0
-1194 511 0
-1195 504 0
-1195 511 0
-1196 507 0
-1196 512 0
-1197 507 0
-1197 512 0
-192 1194 1195 1196 1197 0
-1198 498 0
-1198 502 0
-1199 498 0
-1199 502 0
-1200 510 0
-1200 512 0
-1201 510 0
-1201 512 0
-193 1198 1199 1200 1201 0
-1202 504 0
-1202 508 0
-1203 504 0
-1203 508 0
-1204 512 0
-1204 513 0
-1205 512 0
-1205 513 0
-194 1202 1203 1204 1205 0
-1206 498 0
-1206 500 0
-1207 498 0
-1207 500 0
-1208 515 0
-1208 517 0
-1209 515 0
-1209 517 0
-195 1206 1207 1208 1209 0
-1210 504 0
-1210 506 0
-1211 504 0
-1211 506 0
-1212 517 0
-1212 518 0
-1213 517 0
-1213 518 0
-196 1210 1211 1212 1213 0
