p cnf 1419 3819
-1 -2 0
-1 -3 0
-1 -4 0
-1 -5 0
-1 -6 0
-1 -7 0
-1 -8 0
-1 -9 0
-1 -10 0
-1 -11 0
-1 -12 0
-1 -13 0
-1 -14 0
-1 -15 0
-2 -3 0
-2 -4 0
-2 -5 0
-2 -6 0
-2 -7 0
-2 -8 0
-2 -9 0
-2 -10 0
-2 -11 0
-2 -12 0
-2 -13 0
-2 -14 0
-2 -15 0
-3 -4 0
-3 -5 0
-3 -6 0
-3 -7 0
-3 -8 0
-3 -9 0
-3 -10 0
-3 -11 0
-3 -12 0
-3 -13 0
-3 -14 0
-3 -15 0
-4 -5 0
-4 -6 0
-4 -7 0
-4 -8 0
-4 -9 0
-4 -10 0
-4 -11 0
-4 -12 0
-4 -13 0
-4 -14 0
-4 -15 0
-5 -6 0
-5 -7 0
-5 -8 0
-5 -9 0
-5 -10 0
-5 -11 0
-5 -12 0
-5 -13 0
-5 -14 0
-5 -15 0
-6 -7 0
-6 -8 0
-6 -9 0
-6 -10 0
-6 -11 0
-6 -12 0
-6 -13 0
-6 -14 0
-6 -15 0
-7 -8 0
-7 -9 0
-7 -10 0
-7 -11 0
-7 -12 0
-7 -13 0
-7 -14 0
-7 -15 0
-8 -9 0
-8 -10 0
-8 -11 0
-8 -12 0
-8 -13 0
-8 -14 0
-8 -15 0
-9 -10 0
-9 -11 0
-9 -12 0
-9 -13 0
-9 -14 0
-9 -15 0
-10 -11 0
-10 -12 0
-10 -13 0
-10 -14 0
-10 -15 0
-11 -12 0
-11 -13 0
-11 -14 0
-11 -15 0
-12 -13 0
-12 -14 0
-12 -15 0
-13 -14 0
-13 -15 0
-14 -15 0
-250 226 1 0
-251 227 0
-252 228 2 0
-253 229 3 0
-254 230 4 0
-255 231 5 0
-256 232 6 0
-257 233 7 0
-258 234 0
-259 235 8 0
-260 236 0
-261 237 9 0
-262 238 0
-263 239 10 0
-264 240 0
-265 241 11 0
-266 242 12 0
-267 243 0
-268 244 13 0
-269 245 0
-270 246 14 0
-271 247 15 0
-272 248 0
-273 249 0
-16 -17 0
-16 -18 0
-16 -19 0
-16 -20 0
-16 -21 0
-16 -22 0
-16 -23 0
-16 -24 0
-16 -25 0
-16 -26 0
-16 -27 0
-16 -28 0
-16 -29 0
-16 -30 0
-17 -18 0
-17 -19 0
-17 -20 0
-17 -21 0
-17 -22 0
-17 -23 0
-17 -24 0
-17 -25 0
-17 -26 0
-17 -27 0
-17 -28 0
-17 -29 0
-17 -30 0
-18 -19 0
-18 -20 0
-18 -21 0
-18 -22 0
-18 -23 0
-18 -24 0
-18 -25 0
-18 -26 0
-18 -27 0
-18 -28 0
-18 -29 0
-18 -30 0
-19 -20 0
-19 -21 0
-19 -22 0
-19 -23 0
-19 -24 0
-19 -25 0
-19 -26 0
-19 -27 0
-19 -28 0
-19 -29 0
-19 -30 0
-20 -21 0
-20 -22 0
-20 -23 0
-20 -24 0
-20 -25 0
-20 -26 0
-20 -27 0
-20 -28 0
-20 -29 0
-20 -30 0
-21 -22 0
-21 -23 0
-21 -24 0
-21 -25 0
-21 -26 0
-21 -27 0
-21 -28 0
-21 -29 0
-21 -30 0
-22 -23 0
-22 -24 0
-22 -25 0
-22 -26 0
-22 -27 0
-22 -28 0
-22 -29 0
-22 -30 0
-23 -24 0
-23 -25 0
-23 -26 0
-23 -27 0
-23 -28 0
-23 -29 0
-23 -30 0
-24 -25 0
-24 -26 0
-24 -27 0
-24 -28 0
-24 -29 0
-24 -30 0
-25 -26 0
-25 -27 0
-25 -28 0
-25 -29 0
-25 -30 0
-26 -27 0
-26 -28 0
-26 -29 0
-26 -30 0
-27 -28 0
-27 -29 0
-27 -30 0
-28 -29 0
-28 -30 0
-29 -30 0
-274 250 16 0
-275 251 0
-276 252 17 0
-277 253 18 0
-278 254 19 0
-279 255 20 0
-280 256 21 0
-281 257 22 0
-282 258 0
-283 259 23 0
-284 260 0
-285 261 24 0
-286 262 0
-287 263 25 0
-288 264 0
-289 265 26 0
-290 266 27 0
-291 267 0
-292 268 28 0
-293 269 0
-294 270 29 0
-295 271 30 0
-296 272 0
-297 273 0
-31 -32 0
-31 -33 0
-31 -34 0
-31 -35 0
-31 -36 0
-31 -37 0
-31 -38 0
-31 -39 0
-31 -40 0
-31 -41 0
-31 -42 0
-31 -43 0
-31 -44 0
-31 -45 0
-32 -33 0
-32 -34 0
-32 -35 0
-32 -36 0
-32 -37 0
-32 -38 0
-32 -39 0
-32 -40 0
-32 -41 0
-32 -42 0
-32 -43 0
-32 -44 0
-32 -45 0
-33 -34 0
-33 -35 0
-33 -36 0
-33 -37 0
-33 -38 0
-33 -39 0
-33 -40 0
-33 -41 0
-33 -42 0
-33 -43 0
-33 -44 0
-33 -45 0
-34 -35 0
-34 -36 0
-34 -37 0
-34 -38 0
-34 -39 0
-34 -40 0
-34 -41 0
-34 -42 0
-34 -43 0
-34 -44 0
-34 -45 0
-35 -36 0
-35 -37 0
-35 -38 0
-35 -39 0
-35 -40 0
-35 -41 0
-35 -42 0
-35 -43 0
-35 -44 0
-35 -45 0
-36 -37 0
-36 -38 0
-36 -39 0
-36 -40 0
-36 -41 0
-36 -42 0
-36 -43 0
-36 -44 0
-36 -45 0
-37 -38 0
-37 -39 0
-37 -40 0
-37 -41 0
-37 -42 0
-37 -43 0
-37 -44 0
-37 -45 0
-38 -39 0
-38 -40 0
-38 -41 0
-38 -42 0
-38 -43 0
-38 -44 0
-38 -45 0
-39 -40 0
-39 -41 0
-39 -42 0
-39 -43 0
-39 -44 0
-39 -45 0
-40 -41 0
-40 -42 0
-40 -43 0
-40 -44 0
-40 -45 0
-41 -42 0
-41 -43 0
-41 -44 0
-41 -45 0
-42 -43 0
-42 -44 0
-42 -45 0
-43 -44 0
-43 -45 0
-44 -45 0
-298 274 31 0
-299 275 0
-300 276 32 0
-301 277 33 0
-302 278 34 0
-303 279 35 0
-304 280 36 0
-305 281 37 0
-306 282 0
-307 283 38 0
-308 284 0
-309 285 39 0
-310 286 0
-311 287 40 0
-312 288 0
-313 289 41 0
-314 290 42 0
-315 291 0
-316 292 43 0
-317 293 0
-318 294 44 0
-319 295 45 0
-320 296 0
-321 297 0
-46 -47 0
-46 -48 0
-46 -49 0
-46 -50 0
-46 -51 0
-46 -52 0
-46 -53 0
-46 -54 0
-46 -55 0
-46 -56 0
-46 -57 0
-46 -58 0
-46 -59 0
-46 -60 0
-47 -48 0
-47 -49 0
-47 -50 0
-47 -51 0
-47 -52 0
-47 -53 0
-47 -54 0
-47 -55 0
-47 -56 0
-47 -57 0
-47 -58 0
-47 -59 0
-47 -60 0
-48 -49 0
-48 -50 0
-48 -51 0
-48 -52 0
-48 -53 0
-48 -54 0
-48 -55 0
-48 -56 0
-48 -57 0
-48 -58 0
-48 -59 0
-48 -60 0
-49 -50 0
-49 -51 0
-49 -52 0
-49 -53 0
-49 -54 0
-49 -55 0
-49 -56 0
-49 -57 0
-49 -58 0
-49 -59 0
-49 -60 0
-50 -51 0
-50 -52 0
-50 -53 0
-50 -54 0
-50 -55 0
-50 -56 0
-50 -57 0
-50 -58 0
-50 -59 0
-50 -60 0
-51 -52 0
-51 -53 0
-51 -54 0
-51 -55 0
-51 -56 0
-51 -57 0
-51 -58 0
-51 -59 0
-51 -60 0
-52 -53 0
-52 -54 0
-52 -55 0
-52 -56 0
-52 -57 0
-52 -58 0
-52 -59 0
-52 -60 0
-53 -54 0
-53 -55 0
-53 -56 0
-53 -57 0
-53 -58 0
-53 -59 0
-53 -60 0
-54 -55 0
-54 -56 0
-54 -57 0
-54 -58 0
-54 -59 0
-54 -60 0
-55 -56 0
-55 -57 0
-55 -58 0
-55 -59 0
-55 -60 0
-56 -57 0
-56 -58 0
-56 -59 0
-56 -60 0
-57 -58 0
-57 -59 0
-57 -60 0
-58 -59 0
-58 -60 0
-59 -60 0
-322 298 46 0
-323 299 0
-324 300 47 0
-325 301 48 0
-326 302 49 0
-327 303 50 0
-328 304 51 0
-329 305 52 0
-330 306 0
-331 307 53 0
-332 308 0
-333 309 54 0
-334 310 0
-335 311 55 0
-336 312 0
-337 313 56 0
-338 314 57 0
-339 315 0
-340 316 58 0
-341 317 0
-342 318 59 0
-343 319 60 0
-344 320 0
-345 321 0
-61 -62 0
-61 -63 0
-61 -64 0
-61 -65 0
-61 -66 0
-61 -67 0
-61 -68 0
-61 -69 0
-61 -70 0
-61 -71 0
-61 -72 0
-61 -73 0
-61 -74 0
-61 -75 0
-62 -63 0
-62 -64 0
-62 -65 0
-62 -66 0
-62 -67 0
-62 -68 0
-62 -69 0
-62 -70 0
-62 -71 0
-62 -72 0
-62 -73 0
-62 -74 0
-62 -75 0
-63 -64 0
-63 -65 0
-63 -66 0
-63 -67 0
-63 -68 0
-63 -69 0
-63 -70 0
-63 -71 0
-63 -72 0
-63 -73 0
-63 -74 0
-63 -75 0
-64 -65 0
-64 -66 0
-64 -67 0
-64 -68 0
-64 -69 0
-64 -70 0
-64 -71 0
-64 -72 0
-64 -73 0
-64 -74 0
-64 -75 0
-65 -66 0
-65 -67 0
-65 -68 0
-65 -69 0
-65 -70 0
-65 -71 0
-65 -72 0
-65 -73 0
-65 -74 0
-65 -75 0
-66 -67 0
-66 -68 0
-66 -69 0
-66 -70 0
-66 -71 0
-66 -72 0
-66 -73 0
-66 -74 0
-66 -75 0
-67 -68 0
-67 -69 0
-67 -70 0
-67 -71 0
-67 -72 0
-67 -73 0
-67 -74 0
-67 -75 0
-68 -69 0
-68 -70 0
-68 -71 0
-68 -72 0
-68 -73 0
-68 -74 0
-68 -75 0
-69 -70 0
-69 -71 0
-69 -72 0
-69 -73 0
-69 -74 0
-69 -75 0
-70 -71 0
-70 -72 0
-70 -73 0
-70 -74 0
-70 -75 0
-71 -72 0
-71 -73 0
-71 -74 0
-71 -75 0
-72 -73 0
-72 -74 0
-72 -75 0
-73 -74 0
-73 -75 0
-74 -75 0
-346 322 61 0
-347 323 0
-348 324 62 0
-349 325 63 0
-350 326 64 0
-351 327 65 0
-352 328 66 0
-353 329 67 0
-354 330 0
-355 331 68 0
-356 332 0
-357 333 69 0
-358 334 0
-359 335 70 0
-360 336 0
-361 337 71 0
-362 338 72 0
-363 339 0
-364 340 73 0
-365 341 0
-366 342 74 0
-367 343 75 0
-368 344 0
-369 345 0
-76 -77 0
-76 -78 0
-76 -79 0
-76 -80 0
-76 -81 0
-76 -82 0
-76 -83 0
-76 -84 0
-76 -85 0
-76 -86 0
-76 -87 0
-76 -88 0
-76 -89 0
-76 -90 0
-77 -78 0
-77 -79 0
-77 -80 0
-77 -81 0
-77 -82 0
-77 -83 0
-77 -84 0
-77 -85 0
-77 -86 0
-77 -87 0
-77 -88 0
-77 -89 0
-77 -90 0
-78 -79 0
-78 -80 0
-78 -81 0
-78 -82 0
-78 -83 0
-78 -84 0
-78 -85 0
-78 -86 0
-78 -87 0
-78 -88 0
-78 -89 0
-78 -90 0
-79 -80 0
-79 -81 0
-79 -82 0
-79 -83 0
-79 -84 0
-79 -85 0
-79 -86 0
-79 -87 0
-79 -88 0
-79 -89 0
-79 -90 0
-80 -81 0
-80 -82 0
-80 -83 0
-80 -84 0
-80 -85 0
-80 -86 0
-80 -87 0
-80 -88 0
-80 -89 0
-80 -90 0
-81 -82 0
-81 -83 0
-81 -84 0
-81 -85 0
-81 -86 0
-81 -87 0
-81 -88 0
-81 -89 0
-81 -90 0
-82 -83 0
-82 -84 0
-82 -85 0
-82 -86 0
-82 -87 0
-82 -88 0
-82 -89 0
-82 -90 0
-83 -84 0
-83 -85 0
-83 -86 0
-83 -87 0
-83 -88 0
-83 -89 0
-83 -90 0
-84 -85 0
-84 -86 0
-84 -87 0
-84 -88 0
-84 -89 0
-84 -90 0
-85 -86 0
-85 -87 0
-85 -88 0
-85 -89 0
-85 -90 0
-86 -87 0
-86 -88 0
-86 -89 0
-86 -90 0
-87 -88 0
-87 -89 0
-87 -90 0
-88 -89 0
-88 -90 0
-89 -90 0
-370 346 76 0
-371 347 0
-372 348 77 0
-373 349 78 0
-374 350 79 0
-375 351 80 0
-376 352 81 0
-377 353 82 0
-378 354 0
-379 355 83 0
-380 356 0
-381 357 84 0
-382 358 0
-383 359 85 0
-384 360 0
-385 361 86 0
-386 362 87 0
-387 363 0
-388 364 88 0
-389 365 0
-390 366 89 0
-391 367 90 0
-392 368 0
-393 369 0
-91 -92 0
-91 -93 0
-91 -94 0
-91 -95 0
-91 -96 0
-91 -97 0
-91 -98 0
-91 -99 0
-91 -100 0
-91 -101 0
-91 -102 0
-91 -103 0
-91 -104 0
-91 -105 0
-92 -93 0
-92 -94 0
-92 -95 0
-92 -96 0
-92 -97 0
-92 -98 0
-92 -99 0
-92 -100 0
-92 -101 0
-92 -102 0
-92 -103 0
-92 -104 0
-92 -105 0
-93 -94 0
-93 -95 0
-93 -96 0
-93 -97 0
-93 -98 0
-93 -99 0
-93 -100 0
-93 -101 0
-93 -102 0
-93 -103 0
-93 -104 0
-93 -105 0
-94 -95 0
-94 -96 0
-94 -97 0
-94 -98 0
-94 -99 0
-94 -100 0
-94 -101 0
-94 -102 0
-94 -103 0
-94 -104 0
-94 -105 0
-95 -96 0
-95 -97 0
-95 -98 0
-95 -99 0
-95 -100 0
-95 -101 0
-95 -102 0
-95 -103 0
-95 -104 0
-95 -105 0
-96 -97 0
-96 -98 0
-96 -99 0
-96 -100 0
-96 -101 0
-96 -102 0
-96 -103 0
-96 -104 0
-96 -105 0
-97 -98 0
-97 -99 0
-97 -100 0
-97 -101 0
-97 -102 0
-97 -103 0
-97 -104 0
-97 -105 0
-98 -99 0
-98 -100 0
-98 -101 0
-98 -102 0
-98 -103 0
-98 -104 0
-98 -105 0
-99 -100 0
-99 -101 0
-99 -102 0
-99 -103 0
-99 -104 0
-99 -105 0
-100 -101 0
-100 -102 0
-100 -103 0
-100 -104 0
-100 -105 0
-101 -102 0
-101 -103 0
-101 -104 0
-101 -105 0
-102 -103 0
-102 -104 0
-102 -105 0
-103 -104 0
-103 -105 0
-104 -105 0
-394 370 91 0
-395 371 0
-396 372 92 0
-397 373 93 0
-398 374 94 0
-399 375 95 0
-400 376 96 0
-401 377 97 0
-402 378 0
-403 379 98 0
-404 380 0
-405 381 99 0
-406 382 0
-407 383 100 0
-408 384 0
-409 385 101 0
-410 386 102 0
-411 387 0
-412 388 103 0
-413 389 0
-414 390 104 0
-415 391 105 0
-416 392 0
-417 393 0
-106 -107 0
-106 -108 0
-106 -109 0
-106 -110 0
-106 -111 0
-106 -112 0
-106 -113 0
-106 -114 0
-106 -115 0
-106 -116 0
-106 -117 0
-106 -118 0
-106 -119 0
-106 -120 0
-107 -108 0
-107 -109 0
-107 -110 0
-107 -111 0
-107 -112 0
-107 -113 0
-107 -114 0
-107 -115 0
-107 -116 0
-107 -117 0
-107 -118 0
-107 -119 0
-107 -120 0
-108 -109 0
-108 -110 0
-108 -111 0
-108 -112 0
-108 -113 0
-108 -114 0
-108 -115 0
-108 -116 0
-108 -117 0
-108 -118 0
-108 -119 0
-108 -120 0
-109 -110 0
-109 -111 0
-109 -112 0
-109 -113 0
-109 -114 0
-109 -115 0
-109 -116 0
-109 -117 0
-109 -118 0
-109 -119 0
-109 -120 0
-110 -111 0
-110 -112 0
-110 -113 0
-110 -114 0
-110 -115 0
-110 -116 0
-110 -117 0
-110 -118 0
-110 -119 0
-110 -120 0
-111 -112 0
-111 -113 0
-111 -114 0
-111 -115 0
-111 -116 0
-111 -117 0
-111 -118 0
-111 -119 0
-111 -120 0
-112 -113 0
-112 -114 0
-112 -115 0
-112 -116 0
-112 -117 0
-112 -118 0
-112 -119 0
-112 -120 0
-113 -114 0
-113 -115 0
-113 -116 0
-113 -117 0
-113 -118 0
-113 -119 0
-113 -120 0
-114 -115 0
-114 -116 0
-114 -117 0
-114 -118 0
-114 -119 0
-114 -120 0
-115 -116 0
-115 -117 0
-115 -118 0
-115 -119 0
-115 -120 0
-116 -117 0
-116 -118 0
-116 -119 0
-116 -120 0
-117 -118 0
-117 -119 0
-117 -120 0
-118 -119 0
-118 -120 0
-119 -120 0
-418 394 106 0
-419 395 0
-420 396 107 0
-421 397 108 0
-422 398 109 0
-423 399 110 0
-424 400 111 0
-425 401 112 0
-426 402 0
-427 403 113 0
-428 404 0
-429 405 114 0
-430 406 0
-431 407 115 0
-432 408 0
-433 409 116 0
-434 410 117 0
-435 411 0
-436 412 118 0
-437 413 0
-438 414 119 0
-439 415 120 0
-440 416 0
-441 417 0
-121 -122 0
-121 -123 0
-121 -124 0
-121 -125 0
-121 -126 0
-121 -127 0
-121 -128 0
-121 -129 0
-121 -130 0
-121 -131 0
-121 -132 0
-121 -133 0
-121 -134 0
-121 -135 0
-122 -123 0
-122 -124 0
-122 -125 0
-122 -126 0
-122 -127 0
-122 -128 0
-122 -129 0
-122 -130 0
-122 -131 0
-122 -132 0
-122 -133 0
-122 -134 0
-122 -135 0
-123 -124 0
-123 -125 0
-123 -126 0
-123 -127 0
-123 -128 0
-123 -129 0
-123 -130 0
-123 -131 0
-123 -132 0
-123 -133 0
-123 -134 0
-123 -135 0
-124 -125 0
-124 -126 0
-124 -127 0
-124 -128 0
-124 -129 0
-124 -130 0
-124 -131 0
-124 -132 0
-124 -133 0
-124 -134 0
-124 -135 0
-125 -126 0
-125 -127 0
-125 -128 0
-125 -129 0
-125 -130 0
-125 -131 0
-125 -132 0
-125 -133 0
-125 -134 0
-125 -135 0
-126 -127 0
-126 -128 0
-126 -129 0
-126 -130 0
-126 -131 0
-126 -132 0
-126 -133 0
-126 -134 0
-126 -135 0
-127 -128 0
-127 -129 0
-127 -130 0
-127 -131 0
-127 -132 0
-127 -133 0
-127 -134 0
-127 -135 0
-128 -129 0
-128 -130 0
-128 -131 0
-128 -132 0
-128 -133 0
-128 -134 0
-128 -135 0
-129 -130 0
-129 -131 0
-129 -132 0
-129 -133 0
-129 -134 0
-129 -135 0
-130 -131 0
-130 -132 0
-130 -133 0
-130 -134 0
-130 -135 0
-131 -132 0
-131 -133 0
-131 -134 0
-131 -135 0
-132 -133 0
-132 -134 0
-132 -135 0
-133 -134 0
-133 -135 0
-134 -135 0
-442 418 121 0
-443 419 0
-444 420 122 0
-445 421 123 0
-446 422 124 0
-447 423 125 0
-448 424 126 0
-449 425 127 0
-450 426 0
-451 427 128 0
-452 428 0
-453 429 129 0
-454 430 0
-455 431 130 0
-456 432 0
-457 433 131 0
-458 434 132 0
-459 435 0
-460 436 133 0
-461 437 0
-462 438 134 0
-463 439 135 0
-464 440 0
-465 441 0
-136 -137 0
-136 -138 0
-136 -139 0
-136 -140 0
-136 -141 0
-136 -142 0
-136 -143 0
-136 -144 0
-136 -145 0
-136 -146 0
-136 -147 0
-136 -148 0
-136 -149 0
-136 -150 0
-137 -138 0
-137 -139 0
-137 -140 0
-137 -141 0
-137 -142 0
-137 -143 0
-137 -144 0
-137 -145 0
-137 -146 0
-137 -147 0
-137 -148 0
-137 -149 0
-137 -150 0
-138 -139 0
-138 -140 0
-138 -141 0
-138 -142 0
-138 -143 0
-138 -144 0
-138 -145 0
-138 -146 0
-138 -147 0
-138 -148 0
-138 -149 0
-138 -150 0
-139 -140 0
-139 -141 0
-139 -142 0
-139 -143 0
-139 -144 0
-139 -145 0
-139 -146 0
-139 -147 0
-139 -148 0
-139 -149 0
-139 -150 0
-140 -141 0
-140 -142 0
-140 -143 0
-140 -144 0
-140 -145 0
-140 -146 0
-140 -147 0
-140 -148 0
-140 -149 0
-140 -150 0
-141 -142 0
-141 -143 0
-141 -144 0
-141 -145 0
-141 -146 0
-141 -147 0
-141 -148 0
-141 -149 0
-141 -150 0
-142 -143 0
-142 -144 0
-142 -145 0
-142 -146 0
-142 -147 0
-142 -148 0
-142 -149 0
-142 -150 0
-143 -144 0
-143 -145 0
-143 -146 0
-143 -147 0
-143 -148 0
-143 -149 0
-143 -150 0
-144 -145 0
-144 -146 0
-144 -147 0
-144 -148 0
-144 -149 0
-144 -150 0
-145 -146 0
-145 -147 0
-145 -148 0
-145 -149 0
-145 -150 0
-146 -147 0
-146 -148 0
-146 -149 0
-146 -150 0
-147 -148 0
-147 -149 0
-147 -150 0
-148 -149 0
-148 -150 0
-149 -150 0
-466 442 136 0
-467 443 0
-468 444 137 0
-469 445 138 0
-470 446 139 0
-471 447 140 0
-472 448 141 0
-473 449 142 0
-474 450 0
-475 451 143 0
-476 452 0
-477 453 144 0
-478 454 0
-479 455 145 0
-480 456 0
-481 457 146 0
-482 458 147 0
-483 459 0
-484 460 148 0
-485 461 0
-486 462 149 0
-487 463 150 0
-488 464 0
-489 465 0
-151 -152 0
-151 -153 0
-151 -154 0
-151 -155 0
-151 -156 0
-151 -157 0
-151 -158 0
-151 -159 0
-151 -160 0
-151 -161 0
-151 -162 0
-151 -163 0
-151 -164 0
-151 -165 0
-152 -153 0
-152 -154 0
-152 -155 0
-152 -156 0
-152 -157 0
-152 -158 0
-152 -159 0
-152 -160 0
-152 -161 0
-152 -162 0
-152 -163 0
-152 -164 0
-152 -165 0
-153 -154 0
-153 -155 0
-153 -156 0
-153 -157 0
-153 -158 0
-153 -159 0
-153 -160 0
-153 -161 0
-153 -162 0
-153 -163 0
-153 -164 0
-153 -165 0
-154 -155 0
-154 -156 0
-154 -157 0
-154 -158 0
-154 -159 0
-154 -160 0
-154 -161 0
-154 -162 0
-154 -163 0
-154 -164 0
-154 -165 0
-155 -156 0
-155 -157 0
-155 -158 0
-155 -159 0
-155 -160 0
-155 -161 0
-155 -162 0
-155 -163 0
-155 -164 0
-155 -165 0
-156 -157 0
-156 -158 0
-156 -159 0
-156 -160 0
-156 -161 0
-156 -162 0
-156 -163 0
-156 -164 0
-156 -165 0
-157 -158 0
-157 -159 0
-157 -160 0
-157 -161 0
-157 -162 0
-157 -163 0
-157 -164 0
-157 -165 0
-158 -159 0
-158 -160 0
-158 -161 0
-158 -162 0
-158 -163 0
-158 -164 0
-158 -165 0
-159 -160 0
-159 -161 0
-159 -162 0
-159 -163 0
-159 -164 0
-159 -165 0
-160 -161 0
-160 -162 0
-160 -163 0
-160 -164 0
-160 -165 0
-161 -162 0
-161 -163 0
-161 -164 0
-161 -165 0
-162 -163 0
-162 -164 0
-162 -165 0
-163 -164 0
-163 -165 0
-164 -165 0
-490 466 151 0
-491 467 0
-492 468 152 0
-493 469 153 0
-494 470 154 0
-495 471 155 0
-496 472 156 0
-497 473 157 0
-498 474 0
-499 475 158 0
-500 476 0
-501 477 159 0
-502 478 0
-503 479 160 0
-504 480 0
-505 481 161 0
-506 482 162 0
-507 483 0
-508 484 163 0
-509 485 0
-510 486 164 0
-511 487 165 0
-512 488 0
-513 489 0
-166 -167 0
-166 -168 0
-166 -169 0
-166 -170 0
-166 -171 0
-166 -172 0
-166 -173 0
-166 -174 0
-166 -175 0
-166 -176 0
-166 -177 0
-166 -178 0
-166 -179 0
-166 -180 0
-167 -168 0
-167 -169 0
-167 -170 0
-167 -171 0
-167 -172 0
-167 -173 0
-167 -174 0
-167 -175 0
-167 -176 0
-167 -177 0
-167 -178 0
-167 -179 0
-167 -180 0
-168 -169 0
-168 -170 0
-168 -171 0
-168 -172 0
-168 -173 0
-168 -174 0
-168 -175 0
-168 -176 0
-168 -177 0
-168 -178 0
-168 -179 0
-168 -180 0
-169 -170 0
-169 -171 0
-169 -172 0
-169 -173 0
-169 -174 0
-169 -175 0
-169 -176 0
-169 -177 0
-169 -178 0
-169 -179 0
-169 -180 0
-170 -171 0
-170 -172 0
-170 -173 0
-170 -174 0
-170 -175 0
-170 -176 0
-170 -177 0
-170 -178 0
-170 -179 0
-170 -180 0
-171 -172 0
-171 -173 0
-171 -174 0
-171 -175 0
-171 -176 0
-171 -177 0
-171 -178 0
-171 -179 0
-171 -180 0
-172 -173 0
-172 -174 0
-172 -175 0
-172 -176 0
-172 -177 0
-172 -178 0
-172 -179 0
-172 -180 0
-173 -174 0
-173 -175 0
-173 -176 0
-173 -177 0
-173 -178 0
-173 -179 0
-173 -180 0
-174 -175 0
-174 -176 0
-174 -177 0
-174 -178 0
-174 -179 0
-174 -180 0
-175 -176 0
-175 -177 0
-175 -178 0
-175 -179 0
-175 -180 0
-176 -177 0
-176 -178 0
-176 -179 0
-176 -180 0
-177 -178 0
-177 -179 0
-177 -180 0
-178 -179 0
-178 -180 0
-179 -180 0
-514 490 166 0
-515 491 0
-516 492 167 0
-517 493 168 0
-518 494 169 0
-519 495 170 0
-520 496 171 0
-521 497 172 0
-522 498 0
-523 499 173 0
-524 500 0
-525 501 174 0
-526 502 0
-527 503 175 0
-528 504 0
-529 505 176 0
-530 506 177 0
-531 507 0
-532 508 178 0
-533 509 0
-534 510 179 0
-535 511 180 0
-536 512 0
-537 513 0
-181 -182 0
-181 -183 0
-181 -184 0
-181 -185 0
-181 -186 0
-181 -187 0
-181 -188 0
-181 -189 0
-181 -190 0
-181 -191 0
-181 -192 0
-181 -193 0
-181 -194 0
-181 -195 0
-182 -183 0
-182 -184 0
-182 -185 0
-182 -186 0
-182 -187 0
-182 -188 0
-182 -189 0
-182 -190 0
-182 -191 0
-182 -192 0
-182 -193 0
-182 -194 0
-182 -195 0
-183 -184 0
-183 -185 0
-183 -186 0
-183 -187 0
-183 -188 0
-183 -189 0
-183 -190 0
-183 -191 0
-183 -192 0
-183 -193 0
-183 -194 0
-183 -195 0
-184 -185 0
-184 -186 0
-184 -187 0
-184 -188 0
-184 -189 0
-184 -190 0
-184 -191 0
-184 -192 0
-184 -193 0
-184 -194 0
-184 -195 0
-185 -186 0
-185 -187 0
-185 -188 0
-185 -189 0
-185 -190 0
-185 -191 0
-185 -192 0
-185 -193 0
-185 -194 0
-185 -195 0
-186 -187 0
-186 -188 0
-186 -189 0
-186 -190 0
-186 -191 0
-186 -192 0
-186 -193 0
-186 -194 0
-186 -195 0
-187 -188 0
-187 -189 0
-187 -190 0
-187 -191 0
-187 -192 0
-187 -193 0
-187 -194 0
-187 -195 0
-188 -189 0
-188 -190 0
-188 -191 0
-188 -192 0
-188 -193 0
-188 -194 0
-188 -195 0
-189 -190 0
-189 -191 0
-189 -192 0
-189 -193 0
-189 -194 0
-189 -195 0
-190 -191 0
-190 -192 0
-190 -193 0
-190 -194 0
-190 -195 0
-191 -192 0
-191 -193 0
-191 -194 0
-191 -195 0
-192 -193 0
-192 -194 0
-192 -195 0
-193 -194 0
-193 -195 0
-194 -195 0
-538 514 181 0
-539 515 0
-540 516 182 0
-541 517 183 0
-542 518 184 0
-543 519 185 0
-544 520 186 0
-545 521 187 0
-546 522 0
-547 523 188 0
-548 524 0
-549 525 189 0
-550 526 0
-551 527 190 0
-552 528 0
-553 529 191 0
-554 530 192 0
-555 531 0
-556 532 193 0
-557 533 0
-558 534 194 0
-559 535 195 0
-560 536 0
-561 537 0
-196 -197 0
-196 -198 0
-196 -199 0
-196 -200 0
-196 -201 0
-196 -202 0
-196 -203 0
-196 -204 0
-196 -205 0
-196 -206 0
-196 -207 0
-196 -208 0
-196 -209 0
-196 -210 0
-197 -198 0
-197 -199 0
-197 -200 0
-197 -201 0
-197 -202 0
-197 -203 0
-197 -204 0
-197 -205 0
-197 -206 0
-197 -207 0
-197 -208 0
-197 -209 0
-197 -210 0
-198 -199 0
-198 -200 0
-198 -201 0
-198 -202 0
-198 -203 0
-198 -204 0
-198 -205 0
-198 -206 0
-198 -207 0
-198 -208 0
-198 -209 0
-198 -210 0
-199 -200 0
-199 -201 0
-199 -202 0
-199 -203 0
-199 -204 0
-199 -205 0
-199 -206 0
-199 -207 0
-199 -208 0
-199 -209 0
-199 -210 0
-200 -201 0
-200 -202 0
-200 -203 0
-200 -204 0
-200 -205 0
-200 -206 0
-200 -207 0
-200 -208 0
-200 -209 0
-200 -210 0
-201 -202 0
-201 -203 0
-201 -204 0
-201 -205 0
-201 -206 0
-201 -207 0
-201 -208 0
-201 -209 0
-201 -210 0
-202 -203 0
-202 -204 0
-202 -205 0
-202 -206 0
-202 -207 0
-202 -208 0
-202 -209 0
-202 -210 0
-203 -204 0
-203 -205 0
-203 -206 0
-203 -207 0
-203 -208 0
-203 -209 0
-203 -210 0
-204 -205 0
-204 -206 0
-204 -207 0
-204 -208 0
-204 -209 0
-204 -210 0
-205 -206 0
-205 -207 0
-205 -208 0
-205 -209 0
-205 -210 0
-206 -207 0
-206 -208 0
-206 -209 0
-206 -210 0
-207 -208 0
-207 -209 0
-207 -210 0
-208 -209 0
-208 -210 0
-209 -210 0
-562 538 196 0
-563 539 0
-564 540 197 0
-565 541 198 0
-566 542 199 0
-567 543 200 0
-568 544 201 0
-569 545 202 0
-570 546 0
-571 547 203 0
-572 548 0
-573 549 204 0
-574 550 0
-575 551 205 0
-576 552 0
-577 553 206 0
-578 554 207 0
-579 555 0
-580 556 208 0
-581 557 0
-582 558 209 0
-583 559 210 0
-584 560 0
-585 561 0
-211 -212 0
-211 -213 0
-211 -214 0
-211 -215 0
-211 -216 0
-211 -217 0
-211 -218 0
-211 -219 0
-211 -220 0
-211 -221 0
-211 -222 0
-211 -223 0
-211 -224 0
-211 -225 0
-212 -213 0
-212 -214 0
-212 -215 0
-212 -216 0
-212 -217 0
-212 -218 0
-212 -219 0
-212 -220 0
-212 -221 0
-212 -222 0
-212 -223 0
-212 -224 0
-212 -225 0
-213 -214 0
-213 -215 0
-213 -216 0
-213 -217 0
-213 -218 0
-213 -219 0
-213 -220 0
-213 -221 0
-213 -222 0
-213 -223 0
-213 -224 0
-213 -225 0
-214 -215 0
-214 -216 0
-214 -217 0
-214 -218 0
-214 -219 0
-214 -220 0
-214 -221 0
-214 -222 0
-214 -223 0
-214 -224 0
-214 -225 0
-215 -216 0
-215 -217 0
-215 -218 0
-215 -219 0
-215 -220 0
-215 -221 0
-215 -222 0
-215 -223 0
-215 -224 0
-215 -225 0
-216 -217 0
-216 -218 0
-216 -219 0
-216 -220 0
-216 -221 0
-216 -222 0
-216 -223 0
-216 -224 0
-216 -225 0
-217 -218 0
-217 -219 0
-217 -220 0
-217 -221 0
-217 -222 0
-217 -223 0
-217 -224 0
-217 -225 0
-218 -219 0
-218 -220 0
-218 -221 0
-218 -222 0
-218 -223 0
-218 -224 0
-218 -225 0
-219 -220 0
-219 -221 0
-219 -222 0
-219 -223 0
-219 -224 0
-219 -225 0
-220 -221 0
-220 -222 0
-220 -223 0
-220 -224 0
-220 -225 0
-221 -222 0
-221 -223 0
-221 -224 0
-221 -225 0
-222 -223 0
-222 -224 0
-222 -225 0
-223 -224 0
-223 -225 0
-224 -225 0
-586 562 211 0
-587 563 0
-588 564 212 0
-589 565 213 0
-590 566 214 0
-591 567 215 0
-592 568 216 0
-593 569 217 0
-594 570 0
-595 571 218 0
-596 572 0
-597 573 219 0
-598 574 0
-599 575 220 0
-600 576 0
-601 577 221 0
-602 578 222 0
-603 579 0
-604 580 223 0
-605 581 0
-606 582 224 0
-607 583 225 0
-608 584 0
-609 585 0
-226 0
227 0
-228 0
-229 0
-230 0
-231 0
-232 0
-233 0
234 0
-235 0
236 0
-237 0
238 0
-239 0
240 0
-241 0
-242 0
243 0
-244 0
245 0
-246 0
-247 0
248 0
249 0
1 16 31 46 61 76 91 106 121 136 151 166 181 196 211 0
2 17 32 47 62 77 92 107 122 137 152 167 182 197 212 0
3 18 33 48 63 78 93 108 123 138 153 168 183 198 213 0
4 19 34 49 64 79 94 109 124 139 154 169 184 199 214 0
5 20 35 50 65 80 95 110 125 140 155 170 185 200 215 0
6 21 36 51 66 81 96 111 126 141 156 171 186 201 216 0
7 22 37 52 67 82 97 112 127 142 157 172 187 202 217 0
8 23 38 53 68 83 98 113 128 143 158 173 188 203 218 0
9 24 39 54 69 84 99 114 129 144 159 174 189 204 219 0
10 25 40 55 70 85 100 115 130 145 160 175 190 205 220 0
11 26 41 56 71 86 101 116 131 146 161 176 191 206 221 0
12 27 42 57 72 87 102 117 132 147 162 177 192 207 222 0
13 28 43 58 73 88 103 118 133 148 163 178 193 208 223 0
14 29 44 59 74 89 104 119 134 149 164 179 194 209 224 0
15 30 45 60 75 90 105 120 135 150 165 180 195 210 225 0
-610 228 0
-610 229 0
-611 228 0
-611 229 0
-1 610 611 0
-612 226 0
-612 229 0
-613 226 0
-613 229 0
-614 227 0
-614 237 0
-615 227 0
-615 237 0
-616 229 0
-616 243 0
-617 229 0
-617 243 0
-2 612 613 614 615 616 617 0
-618 226 0
-618 228 0
-619 226 0
-619 228 0
-620 227 0
-620 236 0
-621 227 0
-621 236 0
-622 228 0
-622 243 0
-623 228 0
-623 243 0
-3 618 619 620 621 622 623 0
-4 0
-624 227 0
-624 235 0
-625 227 0
-625 235 0
-626 232 0
-626 240 0
-627 232 0
-627 240 0
-5 624 625 626 627 0
-628 227 0
-628 234 0
-629 227 0
-629 234 0
-630 231 0
-630 240 0
-631 231 0
-631 240 0
-6 628 629 630 631 0
-7 0
-632 227 0
-632 231 0
-633 227 0
-633 231 0
-634 234 0
-634 240 0
-635 234 0
-635 240 0
-8 632 633 634 635 0
-636 227 0
-636 228 0
-637 227 0
-637 228 0
-638 236 0
-638 243 0
-639 236 0
-639 243 0
-9 636 637 638 639 0
-640 240 0
-640 247 0
-641 240 0
-641 247 0
-642 241 0
-642 245 0
-643 241 0
-643 245 0
-10 640 641 642 643 0
-644 239 0
-644 245 0
-645 239 0
-645 245 0
-646 240 0
-646 248 0
-647 240 0
-647 248 0
-11 644 645 646 647 0
-648 243 0
-648 246 0
-649 243 0
-649 246 0
-650 244 0
-650 245 0
-651 244 0
-651 245 0
-12 648 649 650 651 0
-652 242 0
-652 245 0
-653 242 0
-653 245 0
-654 243 0
-654 249 0
-655 243 0
-655 249 0
-13 652 653 654 655 0
-656 242 0
-656 243 0
-657 242 0
-657 243 0
-658 245 0
-658 249 0
-659 245 0
-659 249 0
-14 656 657 658 659 0
-660 239 0
-660 240 0
-661 239 0
-661 240 0
-662 245 0
-662 248 0
-663 245 0
-663 248 0
-15 660 661 662 663 0
-664 252 0
-664 253 0
-665 252 0
-665 253 0
-16 664 665 0
-666 250 0
-666 253 0
-667 250 0
-667 253 0
-668 251 0
-668 261 0
-669 251 0
-669 261 0
-670 253 0
-670 267 0
-671 253 0
-671 267 0
-17 666 667 668 669 670 671 0
-672 250 0
-672 252 0
-673 250 0
-673 252 0
-674 251 0
-674 260 0
-675 251 0
-675 260 0
-676 252 0
-676 267 0
-677 252 0
-677 267 0
-18 672 673 674 675 676 677 0
-19 0
-678 251 0
-678 259 0
-679 251 0
-679 259 0
-680 256 0
-680 264 0
-681 256 0
-681 264 0
-20 678 679 680 681 0
-682 251 0
-682 258 0
-683 251 0
-683 258 0
-684 255 0
-684 264 0
-685 255 0
-685 264 0
-21 682 683 684 685 0
-22 0
-686 251 0
-686 255 0
-687 251 0
-687 255 0
-688 258 0
-688 264 0
-689 258 0
-689 264 0
-23 686 687 688 689 0
-690 251 0
-690 252 0
-691 251 0
-691 252 0
-692 260 0
-692 267 0
-693 260 0
-693 267 0
-24 690 691 692 693 0
-694 264 0
-694 271 0
-695 264 0
-695 271 0
-696 265 0
-696 269 0
-697 265 0
-697 269 0
-25 694 695 696 697 0
-698 263 0
-698 269 0
-699 263 0
-699 269 0
-700 264 0
-700 272 0
-701 264 0
-701 272 0
-26 698 699 700 701 0
-702 267 0
-702 270 0
-703 267 0
-703 270 0
-704 268 0
-704 269 0
-705 268 0
-705 269 0
-27 702 703 704 705 0
-706 266 0
-706 269 0
-707 266 0
-707 269 0
-708 267 0
-708 273 0
-709 267 0
-709 273 0
-28 706 707 708 709 0
-710 266 0
-710 267 0
-711 266 0
-711 267 0
-712 269 0
-712 273 0
-713 269 0
-713 273 0
-29 710 711 712 713 0
-714 263 0
-714 264 0
-715 263 0
-715 264 0
-716 269 0
-716 272 0
-717 269 0
-717 272 0
-30 714 715 716 717 0
-718 276 0
-718 277 0
-719 276 0
-719 277 0
-31 718 719 0
-720 274 0
-720 277 0
-721 274 0
-721 277 0
-722 275 0
-722 285 0
-723 275 0
-723 285 0
-724 277 0
-724 291 0
-725 277 0
-725 291 0
-32 720 721 722 723 724 725 0
-726 274 0
-726 276 0
-727 274 0
-727 276 0
-728 275 0
-728 284 0
-729 275 0
-729 284 0
-730 276 0
-730 291 0
-731 276 0
-731 291 0
-33 726 727 728 729 730 731 0
-34 0
-732 275 0
-732 283 0
-733 275 0
-733 283 0
-734 280 0
-734 288 0
-735 280 0
-735 288 0
-35 732 733 734 735 0
-736 275 0
-736 282 0
-737 275 0
-737 282 0
-738 279 0
-738 288 0
-739 279 0
-739 288 0
-36 736 737 738 739 0
-37 0
-740 275 0
-740 279 0
-741 275 0
-741 279 0
-742 282 0
-742 288 0
-743 282 0
-743 288 0
-38 740 741 742 743 0
-744 275 0
-744 276 0
-745 275 0
-745 276 0
-746 284 0
-746 291 0
-747 284 0
-747 291 0
-39 744 745 746 747 0
-748 288 0
-748 295 0
-749 288 0
-749 295 0
-750 289 0
-750 293 0
-751 289 0
-751 293 0
-40 748 749 750 751 0
-752 287 0
-752 293 0
-753 287 0
-753 293 0
-754 288 0
-754 296 0
-755 288 0
-755 296 0
-41 752 753 754 755 0
-756 291 0
-756 294 0
-757 291 0
-757 294 0
-758 292 0
-758 293 0
-759 292 0
-759 293 0
-42 756 757 758 759 0
-760 290 0
-760 293 0
-761 290 0
-761 293 0
-762 291 0
-762 297 0
-763 291 0
-763 297 0
-43 760 761 762 763 0
-764 290 0
-764 291 0
-765 290 0
-765 291 0
-766 293 0
-766 297 0
-767 293 0
-767 297 0
-44 764 765 766 767 0
-768 287 0
-768 288 0
-769 287 0
-769 288 0
-770 293 0
-770 296 0
-771 293 0
-771 296 0
-45 768 769 770 771 0
-772 300 0
-772 301 0
-773 300 0
-773 301 0
-46 772 773 0
-774 298 0
-774 301 0
-775 298 0
-775 301 0
-776 299 0
-776 309 0
-777 299 0
-777 309 0
-778 301 0
-778 315 0
-779 301 0
-779 315 0
-47 774 775 776 777 778 779 0
-780 298 0
-780 300 0
-781 298 0
-781 300 0
-782 299 0
-782 308 0
-783 299 0
-783 308 0
-784 300 0
-784 315 0
-785 300 0
-785 315 0
-48 780 781 782 783 784 785 0
-49 0
-786 299 0
-786 307 0
-787 299 0
-787 307 0
-788 304 0
-788 312 0
-789 304 0
-789 312 0
-50 786 787 788 789 0
-790 299 0
-790 306 0
-791 299 0
-791 306 0
-792 303 0
-792 312 0
-793 303 0
-793 312 0
-51 790 791 792 793 0
-52 0
-794 299 0
-794 303 0
-795 299 0
-795 303 0
-796 306 0
-796 312 0
-797 306 0
-797 312 0
-53 794 795 796 797 0
-798 299 0
-798 300 0
-799 299 0
-799 300 0
-800 308 0
-800 315 0
-801 308 0
-801 315 0
-54 798 799 800 801 0
-802 312 0
-802 319 0
-803 312 0
-803 319 0
-804 313 0
-804 317 0
-805 313 0
-805 317 0
-55 802 803 804 805 0
-806 311 0
-806 317 0
-807 311 0
-807 317 0
-808 312 0
-808 320 0
-809 312 0
-809 320 0
-56 806 807 808 809 0
-810 315 0
-810 318 0
-811 315 0
-811 318 0
-812 316 0
-812 317 0
-813 316 0
-813 317 0
-57 810 811 812 813 0
-814 314 0
-814 317 0
-815 314 0
-815 317 0
-816 315 0
-816 321 0
-817 315 0
-817 321 0
-58 814 815 816 817 0
-818 314 0
-818 315 0
-819 314 0
-819 315 0
-820 317 0
-820 321 0
-821 317 0
-821 321 0
-59 818 819 820 821 0
-822 311 0
-822 312 0
-823 311 0
-823 312 0
-824 317 0
-824 320 0
-825 317 0
-825 320 0
-60 822 823 824 825 0
-826 324 0
-826 325 0
-827 324 0
-827 325 0
-61 826 827 0
-828 322 0
-828 325 0
-829 322 0
-829 325 0
-830 323 0
-830 333 0
-831 323 0
-831 333 0
-832 325 0
-832 339 0
-833 325 0
-833 339 0
-62 828 829 830 831 832 833 0
-834 322 0
-834 324 0
-835 322 0
-835 324 0
-836 323 0
-836 332 0
-837 323 0
-837 332 0
-838 324 0
-838 339 0
-839 324 0
-839 339 0
-63 834 835 836 837 838 839 0
-64 0
-840 323 0
-840 331 0
-841 323 0
-841 331 0
-842 328 0
-842 336 0
-843 328 0
-843 336 0
-65 840 841 842 843 0
-844 323 0
-844 330 0
-845 323 0
-845 330 0
-846 327 0
-846 336 0
-847 327 0
-847 336 0
-66 844 845 846 847 0
-67 0
-848 323 0
-848 327 0
-849 323 0
-849 327 0
-850 330 0
-850 336 0
-851 330 0
-851 336 0
-68 848 849 850 851 0
-852 323 0
-852 324 0
-853 323 0
-853 324 0
-854 332 0
-854 339 0
-855 332 0
-855 339 0
-69 852 853 854 855 0
-856 336 0
-856 343 0
-857 336 0
-857 343 0
-858 337 0
-858 341 0
-859 337 0
-859 341 0
-70 856 857 858 859 0
-860 335 0
-860 341 0
-861 335 0
-861 341 0
-862 336 0
-862 344 0
-863 336 0
-863 344 0
-71 860 861 862 863 0
-864 339 0
-864 342 0
-865 339 0
-865 342 0
-866 340 0
-866 341 0
-867 340 0
-867 341 0
-72 864 865 866 867 0
-868 338 0
-868 341 0
-869 338 0
-869 341 0
-870 339 0
-870 345 0
-871 339 0
-871 345 0
-73 868 869 870 871 0
-872 338 0
-872 339 0
-873 338 0
-873 339 0
-874 341 0
-874 345 0
-875 341 0
-875 345 0
-74 872 873 874 875 0
-876 335 0
-876 336 0
-877 335 0
-877 336 0
-878 341 0
-878 344 0
-879 341 0
-879 344 0
-75 876 877 878 879 0
-880 348 0
-880 349 0
-881 348 0
-881 349 0
-76 880 881 0
-882 346 0
-882 349 0
-883 346 0
-883 349 0
-884 347 0
-884 357 0
-885 347 0
-885 357 0
-886 349 0
-886 363 0
-887 349 0
-887 363 0
-77 882 883 884 885 886 887 0
-888 346 0
-888 348 0
-889 346 0
-889 348 0
-890 347 0
-890 356 0
-891 347 0
-891 356 0
-892 348 0
-892 363 0
-893 348 0
-893 363 0
-78 888 889 890 891 892 893 0
-79 0
-894 347 0
-894 355 0
-895 347 0
-895 355 0
-896 352 0
-896 360 0
-897 352 0
-897 360 0
-80 894 895 896 897 0
-898 347 0
-898 354 0
-899 347 0
-899 354 0
-900 351 0
-900 360 0
-901 351 0
-901 360 0
-81 898 899 900 901 0
-82 0
-902 347 0
-902 351 0
-903 347 0
-903 351 0
-904 354 0
-904 360 0
-905 354 0
-905 360 0
-83 902 903 904 905 0
-906 347 0
-906 348 0
-907 347 0
-907 348 0
-908 356 0
-908 363 0
-909 356 0
-909 363 0
-84 906 907 908 909 0
-910 360 0
-910 367 0
-911 360 0
-911 367 0
-912 361 0
-912 365 0
-913 361 0
-913 365 0
-85 910 911 912 913 0
-914 359 0
-914 365 0
-915 359 0
-915 365 0
-916 360 0
-916 368 0
-917 360 0
-917 368 0
-86 914 915 916 917 0
-918 363 0
-918 366 0
-919 363 0
-919 366 0
-920 364 0
-920 365 0
-921 364 0
-921 365 0
-87 918 919 920 921 0
-922 362 0
-922 365 0
-923 362 0
-923 365 0
-924 363 0
-924 369 0
-925 363 0
-925 369 0
-88 922 923 924 925 0
-926 362 0
-926 363 0
-927 362 0
-927 363 0
-928 365 0
-928 369 0
-929 365 0
-929 369 0
-89 926 927 928 929 0
-930 359 0
-930 360 0
-931 359 0
-931 360 0
-932 365 0
-932 368 0
-933 365 0
-933 368 0
-90 930 931 932 933 0
-934 372 0
-934 373 0
-935 372 0
-935 373 0
-91 934 935 0
-936 370 0
-936 373 0
-937 370 0
-937 373 0
-938 371 0
-938 381 0
-939 371 0
-939 381 0
-940 373 0
-940 387 0
-941 373 0
-941 387 0
-92 936 937 938 939 940 941 0
-942 370 0
-942 372 0
-943 370 0
-943 372 0
-944 371 0
-944 380 0
-945 371 0
-945 380 0
-946 372 0
-946 387 0
-947 372 0
-947 387 0
-93 942 943 944 945 946 947 0
-94 0
-948 371 0
-948 379 0
-949 371 0
-949 379 0
-950 376 0
-950 384 0
-951 376 0
-951 384 0
-95 948 949 950 951 0
-952 371 0
-952 378 0
-953 371 0
-953 378 0
-954 375 0
-954 384 0
-955 375 0
-955 384 0
-96 952 953 954 955 0
-97 0
-956 371 0
-956 375 0
-957 371 0
-957 375 0
-958 378 0
-958 384 0
-959 378 0
-959 384 0
-98 956 957 958 959 0
-960 371 0
-960 372 0
-961 371 0
-961 372 0
-962 380 0
-962 387 0
-963 380 0
-963 387 0
-99 960 961 962 963 0
-964 384 0
-964 391 0
-965 384 0
-965 391 0
-966 385 0
-966 389 0
-967 385 0
-967 389 0
-100 964 965 966 967 0
-968 383 0
-968 389 0
-969 383 0
-969 389 0
-970 384 0
-970 392 0
-971 384 0
-971 392 0
-101 968 969 970 971 0
-972 387 0
-972 390 0
-973 387 0
-973 390 0
-974 388 0
-974 389 0
-975 388 0
-975 389 0
-102 972 973 974 975 0
-976 386 0
-976 389 0
-977 386 0
-977 389 0
-978 387 0
-978 393 0
-979 387 0
-979 393 0
-103 976 977 978 979 0
-980 386 0
-980 387 0
-981 386 0
-981 387 0
-982 389 0
-982 393 0
-983 389 0
-983 393 0
-104 980 981 982 983 0
-984 383 0
-984 384 0
-985 383 0
-985 384 0
-986 389 0
-986 392 0
-987 389 0
-987 392 0
-105 984 985 986 987 0
-988 396 0
-988 397 0
-989 396 0
-989 397 0
-106 988 989 0
-990 394 0
-990 397 0
-991 394 0
-991 397 0
-992 395 0
-992 405 0
-993 395 0
-993 405 0
-994 397 0
-994 411 0
-995 397 0
-995 411 0
-107 990 991 992 993 994 995 0
-996 394 0
-996 396 0
-997 394 0
-997 396 0
-998 395 0
-998 404 0
-999 395 0
-999 404 0
-1000 396 0
-1000 411 0
-1001 396 0
-1001 411 0
-108 996 997 998 999 1000 1001 0
-109 0
-1002 395 0
-1002 403 0
-1003 395 0
-1003 403 0
-1004 400 0
-1004 408 0
-1005 400 0
-1005 408 0
-110 1002 1003 1004 1005 0
-1006 395 0
-1006 402 0
-1007 395 0
-1007 402 0
-1008 399 0
-1008 408 0
-1009 399 0
-1009 408 0
-111 1006 1007 1008 1009 0
-112 0
-1010 395 0
-1010 399 0
-1011 395 0
-1011 399 0
-1012 402 0
-1012 408 0
-1013 402 0
-1013 408 0
-113 1010 1011 1012 1013 0
-1014 395 0
-1014 396 0
-1015 395 0
-1015 396 0
-1016 404 0
-1016 411 0
-1017 404 0
-1017 411 0
-114 1014 1015 1016 1017 0
-1018 408 0
-1018 415 0
-1019 408 0
-1019 415 0
-1020 409 0
-1020 413 0
-1021 409 0
-1021 413 0
-115 1018 1019 1020 1021 0
-1022 407 0
-1022 413 0
-1023 407 0
-1023 413 0
-1024 408 0
-1024 416 0
-1025 408 0
-1025 416 0
-116 1022 1023 1024 1025 0
-1026 411 0
-1026 414 0
-1027 411 0
-1027 414 0
-1028 412 0
-1028 413 0
-1029 412 0
-1029 413 0
-117 1026 1027 1028 1029 0
-1030 410 0
-1030 413 0
-1031 410 0
-1031 413 0
-1032 411 0
-1032 417 0
-1033 411 0
-1033 417 0
-118 1030 1031 1032 1033 0
-1034 410 0
-1034 411 0
-1035 410 0
-1035 411 0
-1036 413 0
-1036 417 0
-1037 413 0
-1037 417 0
-119 1034 1035 1036 1037 0
-1038 407 0
-1038 408 0
-1039 407 0
-1039 408 0
-1040 413 0
-1040 416 0
-1041 413 0
-1041 416 0
-120 1038 1039 1040 1041 0
-1042 420 0
-1042 421 0
-1043 420 0
-1043 421 0
-121 1042 1043 0
-1044 418 0
-1044 421 0
-1045 418 0
-1045 421 0
-1046 419 0
-1046 429 0
-1047 419 0
-1047 429 0
-1048 421 0
-1048 435 0
-1049 421 0
-1049 435 0
-122 1044 1045 1046 1047 1048 1049 0
-1050 418 0
-1050 420 0
-1051 418 0
-1051 420 0
-1052 419 0
-1052 428 0
-1053 419 0
-1053 428 0
-1054 420 0
-1054 435 0
-1055 420 0
-1055 435 0
-123 1050 1051 1052 1053 1054 1055 0
-124 0
-1056 419 0
-1056 427 0
-1057 419 0
-1057 427 0
-1058 424 0
-1058 432 0
-1059 424 0
-1059 432 0
-125 1056 1057 1058 1059 0
-1060 419 0
-1060 426 0
-1061 419 0
-1061 426 0
-1062 423 0
-1062 432 0
-1063 423 0
-1063 432 0
-126 1060 1061 1062 1063 0
-127 0
-1064 419 0
-1064 423 0
-1065 419 0
-1065 423 0
-1066 426 0
-1066 432 0
-1067 426 0
-1067 432 0
-128 1064 1065 1066 1067 0
-1068 419 0
-1068 420 0
-1069 419 0
-1069 420 0
-1070 428 0
-1070 435 0
-1071 428 0
-1071 435 0
-129 1068 1069 1070 1071 0
-1072 432 0
-1072 439 0
-1073 432 0
-1073 439 0
-1074 433 0
-1074 437 0
-1075 433 0
-1075 437 0
-130 1072 1073 1074 1075 0
-1076 431 0
-1076 437 0
-1077 431 0
-1077 437 0
-1078 432 0
-1078 440 0
-1079 432 0
-1079 440 0
-131 1076 1077 1078 1079 0
-1080 435 0
-1080 438 0
-1081 435 0
-1081 438 0
-1082 436 0
-1082 437 0
-1083 436 0
-1083 437 0
-132 1080 1081 1082 1083 0
-1084 434 0
-1084 437 0
-1085 434 0
-1085 437 0
-1086 435 0
-1086 441 0
-1087 435 0
-1087 441 0
-133 1084 1085 1086 1087 0
-1088 434 0
-1088 435 0
-1089 434 0
-1089 435 0
-1090 437 0
-1090 441 0
-1091 437 0
-1091 441 0
-134 1088 1089 1090 1091 0
-1092 431 0
-1092 432 0
-1093 431 0
-1093 432 0
-1094 437 0
-1094 440 0
-1095 437 0
-1095 440 0
-135 1092 1093 1094 1095 0
-1096 444 0
-1096 445 0
-1097 444 0
-1097 445 0
-136 1096 1097 0
-1098 442 0
-1098 445 0
-1099 442 0
-1099 445 0
-1100 443 0
-1100 453 0
-1101 443 0
-1101 453 0
-1102 445 0
-1102 459 0
-1103 445 0
-1103 459 0
-137 1098 1099 1100 1101 1102 1103 0
-1104 442 0
-1104 444 0
-1105 442 0
-1105 444 0
-1106 443 0
-1106 452 0
-1107 443 0
-1107 452 0
-1108 444 0
-1108 459 0
-1109 444 0
-1109 459 0
-138 1104 1105 1106 1107 1108 1109 0
-139 0
-1110 443 0
-1110 451 0
-1111 443 0
-1111 451 0
-1112 448 0
-1112 456 0
-1113 448 0
-1113 456 0
-140 1110 1111 1112 1113 0
-1114 443 0
-1114 450 0
-1115 443 0
-1115 450 0
-1116 447 0
-1116 456 0
-1117 447 0
-1117 456 0
-141 1114 1115 1116 1117 0
-142 0
-1118 443 0
-1118 447 0
-1119 443 0
-1119 447 0
-1120 450 0
-1120 456 0
-1121 450 0
-1121 456 0
-143 1118 1119 1120 1121 0
-1122 443 0
-1122 444 0
-1123 443 0
-1123 444 0
-1124 452 0
-1124 459 0
-1125 452 0
-1125 459 0
-144 1122 1123 1124 1125 0
-1126 456 0
-1126 463 0
-1127 456 0
-1127 463 0
-1128 457 0
-1128 461 0
-1129 457 0
-1129 461 0
-145 1126 1127 1128 1129 0
-1130 455 0
-1130 461 0
-1131 455 0
-1131 461 0
-1132 456 0
-1132 464 0
-1133 456 0
-1133 464 0
-146 1130 1131 1132 1133 0
-1134 459 0
-1134 462 0
-1135 459 0
-1135 462 0
-1136 460 0
-1136 461 0
-1137 460 0
-1137 461 0
-147 1134 1135 1136 1137 0
-1138 458 0
-1138 461 0
-1139 458 0
-1139 461 0
-1140 459 0
-1140 465 0
-1141 459 0
-1141 465 0
-148 1138 1139 1140 1141 0
-1142 458 0
-1142 459 0
-1143 458 0
-1143 459 0
-1144 461 0
-1144 465 0
-1145 461 0
-1145 465 0
-149 1142 1143 1144 1145 0
-1146 455 0
-1146 456 0
-1147 455 0
-1147 456 0
-1148 461 0
-1148 464 0
-1149 461 0
-1149 464 0
-150 1146 1147 1148 1149 0
-1150 468 0
-1150 469 0
-1151 468 0
-1151 469 0
-151 1150 1151 0
-1152 466 0
-1152 469 0
-1153 466 0
-1153 469 0
-1154 467 0
-1154 477 0
-1155 467 0
-1155 477 0
-1156 469 0
-1156 483 0
-1157 469 0
-1157 483 0
-152 1152 1153 1154 1155 1156 1157 0
-1158 466 0
-1158 468 0
-1159 466 0
-1159 468 0
-1160 467 0
-1160 476 0
-1161 467 0
-1161 476 0
-1162 468 0
-1162 483 0
-1163 468 0
-1163 483 0
-153 1158 1159 1160 1161 1162 1163 0
-154 0
-1164 467 0
-1164 475 0
-1165 467 0
-1165 475 0
-1166 472 0
-1166 480 0
-1167 472 0
-1167 480 0
-155 1164 1165 1166 1167 0
-1168 467 0
-1168 474 0
-1169 467 0
-1169 474 0
-1170 471 0
-1170 480 0
-1171 471 0
-1171 480 0
-156 1168 1169 1170 1171 0
-157 0
-1172 467 0
-1172 471 0
-1173 467 0
-1173 471 0
-1174 474 0
-1174 480 0
-1175 474 0
-1175 480 0
-158 1172 1173 1174 1175 0
-1176 467 0
-1176 468 0
-1177 467 0
-1177 468 0
-1178 476 0
-1178 483 0
-1179 476 0
-1179 483 0
-159 1176 1177 1178 1179 0
-1180 480 0
-1180 487 0
-1181 480 0
-1181 487 0
-1182 481 0
-1182 485 0
-1183 481 0
-1183 485 0
-160 1180 1181 1182 1183 0
-1184 479 0
-1184 485 0
-1185 479 0
-1185 485 0
-1186 480 0
-1186 488 0
-1187 480 0
-1187 488 0
-161 1184 1185 1186 1187 0
-1188 483 0
-1188 486 0
-1189 483 0
-1189 486 0
-1190 484 0
-1190 485 0
-1191 484 0
-1191 485 0
-162 1188 1189 1190 1191 0
-1192 482 0
-1192 485 0
-1193 482 0
-1193 485 0
-1194 483 0
-1194 489 0
-1195 483 0
-1195 489 0
-163 1192 1193 1194 1195 0
-1196 482 0
-1196 483 0
-1197 482 0
-1197 483 0
-1198 485 0
-1198 489 0
-1199 485 0
-1199 489 0
-164 1196 1197 1198 1199 0
-1200 479 0
-1200 480 0
-1201 479 0
-1201 480 0
-1202 485 0
-1202 488 0
-1203 485 0
-1203 488 0
-165 1200 1201 1202 1203 0
-1204 492 0
-1204 493 0
-1205 492 0
-1205 493 0
-166 1204 1205 0
-1206 490 0
-1206 493 0
-1207 490 0
-1207 493 0
-1208 491 0
-1208 501 0
-1209 491 0
-1209 501 0
-1210 493 0
-1210 507 0
-1211 493 0
-1211 507 0
-167 1206 1207 1208 1209 1210 1211 0
-1212 490 0
-1212 492 0
-1213 490 0
-1213 492 0
-1214 491 0
-1214 500 0
-1215 491 0
-1215 500 0
-1216 492 0
-1216 507 0
-1217 492 0
-1217 507 0
-168 1212 1213 1214 1215 1216 1217 0
-169 0
-1218 491 0
-1218 499 0
-1219 491 0
-1219 499 0
-1220 496 0
-1220 504 0
-1221 496 0
-1221 504 0
-170 1218 1219 1220 1221 0
-1222 491 0
-1222 498 0
-1223 491 0
-1223 498 0
-1224 495 0
-1224 504 0
-1225 495 0
-1225 504 0
-171 1222 1223 1224 1225 0
-172 0
-1226 491 0
-1226 495 0
-1227 491 0
-1227 495 0
-1228 498 0
-1228 504 0
-1229 498 0
-1229 504 0
-173 1226 1227 1228 1229 0
-1230 491 0
-1230 492 0
-1231 491 0
-1231 492 0
-1232 500 0
-1232 507 0
-1233 500 0
-1233 507 0
-174 1230 1231 1232 1233 0
-1234 504 0
-1234 511 0
-1235 504 0
-1235 511 0
-1236 505 0
-1236 509 0
-1237 505 0
-1237 509 0
-175 1234 1235 1236 1237 0
-1238 503 0
-1238 509 0
-1239 503 0
-1239 509 0
-1240 504 0
-1240 512 0
-1241 504 0
-1241 512 0
-176 1238 1239 1240 1241 0
-1242 507 0
-1242 510 0
-1243 507 0
-1243 510 0
-1244 508 0
-1244 509 0
-1245 508 0
-1245 509 0
-177 1242 1243 1244 1245 0
-1246 506 0
-1246 509 0
-1247 506 0
-1247 509 0
-1248 507 0
-1248 513 0
-1249 507 0
-1249 513 0
-178 1246 1247 1248 1249 0
-1250 506 0
-1250 507 0
-1251 506 0
-1251 507 0
-1252 509 0
-1252 513 0
-1253 509 0
-1253 513 0
-179 1250 1251 1252 1253 0
-1254 503 0
-1254 504 0
-1255 503 0
-1255 504 0
-1256 509 0
-1256 512 0
-1257 509 0
-1257 512 0
-180 1254 1255 1256 1257 0
-1258 516 0
-1258 517 0
-1259 516 0
-1259 517 0
-181 1258 1259 0
-1260 514 0
-1260 517 0
-1261 514 0
-1261 517 0
-1262 515 0
-1262 525 0
-1263 515 0
-1263 525 0
-1264 517 0
-1264 531 0
-1265 517 0
-1265 531 0
-182 1260 1261 1262 1263 1264 1265 0
-1266 514 0
-1266 516 0
-1267 514 0
-1267 516 0
-1268 515 0
-1268 524 0
-1269 515 0
-1269 524 0
-1270 516 0
-1270 531 0
-1271 516 0
-1271 531 0
-183 1266 1267 1268 1269 1270 1271 0
-184 0
-1272 515 0
-1272 523 0
-1273 515 0
-1273 523 0
-1274 520 0
-1274 528 0
-1275 520 0
-1275 528 0
-185 1272 1273 1274 1275 0
-1276 515 0
-1276 522 0
-1277 515 0
-1277 522 0
-1278 519 0
-1278 528 0
-1279 519 0
-1279 528 0
-186 1276 1277 1278 1279 0
-187 0
-1280 515 0
-1280 519 0
-1281 515 0
-1281 519 0
-1282 522 0
-1282 528 0
-1283 522 0
-1283 528 0
-188 1280 1281 1282 1283 0
-1284 515 0
-1284 516 0
-1285 515 0
-1285 516 0
-1286 524 0
-1286 531 0
-1287 524 0
-1287 531 0
-189 1284 1285 1286 1287 0
-1288 528 0
-1288 535 0
-1289 528 0
-1289 535 0
-1290 529 0
-1290 533 0
-1291 529 0
-1291 533 0
-190 1288 1289 1290 1291 0
-1292 527 0
-1292 533 0
-1293 527 0
-1293 533 0
-1294 528 0
-1294 536 0
-1295 528 0
-1295 536 0
-191 1292 1293 1294 1295 0
-1296 531 0
-1296 534 0
-1297 531 0
-1297 534 0
-1298 532 0
-1298 533 0
-1299 532 0
-1299 533 0
-192 1296 1297 1298 1299 0
-1300 530 0
-1300 533 0
-1301 530 0
-1301 533 0
-1302 531 0
-1302 537 0
-1303 531 0
-1303 537 0
-193 1300 1301 1302 1303 0
-1304 530 0
-1304 531 0
-1305 530 0
-1305 531 0
-1306 533 0
-1306 537 0
-1307 533 0
-1307 537 0
-194 1304 1305 1306 1307 0
-1308 527 0
-1308 528 0
-1309 527 0
-1309 528 0
-1310 533 0
-1310 536 0
-1311 533 0
-1311 536 0
-195 1308 1309 1310 1311 0
-1312 540 0
-1312 541 0
-1313 540 0
-1313 541 0
-196 1312 1313 0
-1314 538 0
-1314 541 0
-1315 538 0
-1315 541 0
-1316 539 0
-1316 549 0
-1317 539 0
-1317 549 0
-1318 541 0
-1318 555 0
-1319 541 0
-1319 555 0
-197 1314 1315 1316 1317 1318 1319 0
-1320 538 0
-1320 540 0
-1321 538 0
-1321 540 0
-1322 539 0
-1322 548 0
-1323 539 0
-1323 548 0
-1324 540 0
-1324 555 0
-1325 540 0
-1325 555 0
-198 1320 1321 1322 1323 1324 1325 0
-199 0
-1326 539 0
-1326 547 0
-1327 539 0
-1327 547 0
-1328 544 0
-1328 552 0
-1329 544 0
-1329 552 0
-200 1326 1327 1328 1329 0
-1330 539 0
-1330 546 0
-1331 539 0
-1331 546 0
-1332 543 0
-1332 552 0
-1333 543 0
-1333 552 0
-201 1330 1331 1332 1333 0
-202 0
-1334 539 0
-1334 543 0
-1335 539 0
-1335 543 0
-1336 546 0
-1336 552 0
-1337 546 0
-1337 552 0
-203 1334 1335 1336 1337 0
-1338 539 0
-1338 540 0
-1339 539 0
-1339 540 0
-1340 548 0
-1340 555 0
-1341 548 0
-1341 555 0
-204 1338 1339 1340 1341 0
-1342 552 0
-1342 559 0
-1343 552 0
-1343 559 0
-1344 553 0
-1344 557 0
-1345 553 0
-1345 557 0
-205 1342 1343 1344 1345 0
-1346 551 0
-1346 557 0
-1347 551 0
-1347 557 0
-1348 552 0
-1348 560 0
-1349 552 0
-1349 560 0
-206 1346 1347 1348 1349 0
-1350 555 0
-1350 558 0
-1351 555 0
-1351 558 0
-1352 556 0
-1352 557 0
-1353 556 0
-1353 557 0
-207 1350 1351 1352 1353 0
-1354 554 0
-1354 557 0
-1355 554 0
-1355 557 0
-1356 555 0
-1356 561 0
-1357 555 0
-1357 561 0
-208 1354 1355 1356 1357 0
-1358 554 0
-1358 555 0
-1359 554 0
-1359 555 0
-1360 557 0
-1360 561 0
-1361 557 0
-1361 561 0
-209 1358 1359 1360 1361 0
-1362 551 0
-1362 552 0
-1363 551 0
-1363 552 0
-1364 557 0
-1364 560 0
-1365 557 0
-1365 560 0
-210 1362 1363 1364 1365 0
-1366 564 0
-1366 565 0
-1367 564 0
-1367 565 0
-211 1366 1367 0
-1368 562 0
-1368 565 0
-1369 562 0
-1369 565 0
-1370 563 0
-1370 573 0
-1371 563 0
-1371 573 0
-1372 565 0
-1372 579 0
-1373 565 0
-1373 579 0
-212 1368 1369 1370 1371 1372 1373 0
-1374 562 0
-1374 564 0
-1375 562 0
-1375 564 0
-1376 563 0
-1376 572 0
-1377 563 0
-1377 572 0
-1378 564 0
-1378 579 0
-1379 564 0
-1379 579 0
-213 1374 1375 1376 1377 1378 1379 0
-214 0
-1380 563 0
-1380 571 0
-1381 563 0
-1381 571 0
-1382 568 0
-1382 576 0
-1383 568 0
-1383 576 0
-215 1380 1381 1382 1383 0
-1384 563 0
-1384 570 0
-1385 563 0
-1385 570 0
-1386 567 0
-1386 576 0
-1387 567 0
-1387 576 0
-216 1384 1385 1386 1387 0
-217 0
-1388 563 0
-1388 567 0
-1389 563 0
-1389 567 0
-1390 570 0
-1390 576 0
-1391 570 0
-1391 576 0
-218 1388 1389 1390 1391 0
-1392 563 0
-1392 564 0
-1393 563 0
-1393 564 0
-1394 572 0
-1394 579 0
-1395 572 0
-1395 579 0
-219 1392 1393 1394 1395 0
-1396 576 0
-1396 583 0
-1397 576 0
-1397 583 0
-1398 577 0
-1398 581 0
-1399 577 0
-1399 581 0
-220 1396 1397 1398 1399 0
-1400 575 0
-1400 581 0
-1401 575 0
-1401 581 0
-1402 576 0
-1402 584 0
-1403 576 0
-1403 584 0
-221 1400 1401 1402 1403 0
-1404 579 0
-1404 582 0
-1405 579 0
-1405 582 0
-1406 580 0
-1406 581 0
-1407 580 0
-1407 581 0
-222 1404 1405 1406 1407 0
-1408 578 0
-1408 581 0
-1409 578 0
-1409 581 0
-1410 579 0
-1410 585 0
-1411 579 0
-1411 585 0
-223 1408 1409 1410 1411 0
-1412 578 0
-1412 579 0
-1413 578 0
-1413 579 0
-1414 581 0
-1414 585 0
-1415 581 0
-1415 585 0
-224 1412 1413 1414 1415 0
-1416 575 0
-1416 576 0
-1417 575 0
-1417 576 0
-1418 581 0
-1418 584 0
-1419 581 0
-1419 584 0
-225 1416 1417 1418 1419 0
