p cnf 1419 3819
-1 -2 0
-1 -3 0
-1 -4 0
-1 -5 0
-1 -6 0
-1 -7 0
-1 -8 0
-1 -9 0
-1 -10 0
-1 -11 0
-1 -12 0
-1 -13 0
-1 -14 0
-1 -15 0
-2 -3 0
-2 -4 0
-2 -5 0
-2 -6 0
-2 -7 0
-2 -8 0
-2 -9 0
-2 -10 0
-2 -11 0
-2 -12 0
-2 -13 0
-2 -14 0
-2 -15 0
-3 -4 0
-3 -5 0
-3 -6 0
-3 -7 0
-3 -8 0
-3 -9 0
-3 -10 0
-3 -11 0
-3 -12 0
-3 -13 0
-3 -14 0
-3 -15 0
-4 -5 0
-4 -6 0
-4 -7 0
-4 -8 0
-4 -9 0
-4 -10 0
-4 -11 0
-4 -12 0
-4 -13 0
-4 -14 0
-4 -15 0
-5 -6 0
-5 -7 0
-5 -8 0
-5 -9 0
-5 -10 0
-5 -11 0
-5 -12 0
-5 -13 0
-5 -14 0
-5 -15 0
-6 -7 0
-6 -8 0
-6 -9 0
-6 -10 0
-6 -11 0
-6 -12 0
-6 -13 0
-6 -14 0
-6 -15 0
-7 -8 0
-7 -9 0
-7 -10 0
-7 -11 0
-7 -12 0
-7 -13 0
-7 -14 0
-7 -15 0
-8 -9 0
-8 -10 0
-8 -11 0
-8 -12 0
-8 -13 0
-8 -14 0
-8 -15 0
-9 -10 0
-9 -11 0
-9 -12 0
-9 -13 0
-9 -14 0
-9 -15 0
-10 -11 0
-10 -12 0
-10 -13 0
-10 -14 0
-10 -15 0
-11 -12 0
-11 -13 0
-11 -14 0
-11 -15 0
-12 -13 0
-12 -14 0
-12 -15 0
-13 -14 0
-13 -15 0
-14 -15 0
-250 226 1 0
-251 227 2 0
-252 228 3 0
-253 229 0
-254 230 4 0
-255 231 5 0
-256 232 6 0
-257 233 7 0
-258 234 0
-259 235 8 0
-260 236 9 0
-261 237 10 0
-262 238 11 0
-263 239 0
-264 240 12 0
-265 241 13 0
-266 242 0
-267 243 0
-268 244 0
-269 245 14 0
-270 246 15 0
-271 247 0
-272 248 0
-273 249 0
-16 -17 0
-16 -18 0
-16 -19 0
-16 -20 0
-16 -21 0
-16 -22 0
-16 -23 0
-16 -24 0
-16 -25 0
-16 -26 0
-16 -27 0
-16 -28 0
-16 -29 0
-16 -30 0
-17 -18 0
-17 -19 0
-17 -20 0
-17 -21 0
-17 -22 0
-17 -23 0
-17 -24 0
-17 -25 0
-17 -26 0
-17 -27 0
-17 -28 0
-17 -29 0
-17 -30 0
-18 -19 0
-18 -20 0
-18 -21 0
-18 -22 0
-18 -23 0
-18 -24 0
-18 -25 0
-18 -26 0
-18 -27 0
-18 -28 0
-18 -29 0
-18 -30 0
-19 -20 0
-19 -21 0
-19 -22 0
-19 -23 0
-19 -24 0
-19 -25 0
-19 -26 0
-19 -27 0
-19 -28 0
-19 -29 0
-19 -30 0
-20 -21 0
-20 -22 0
-20 -23 0
-20 -24 0
-20 -25 0
-20 -26 0
-20 -27 0
-20 -28 0
-20 -29 0
-20 -30 0
-21 -22 0
-21 -23 0
-21 -24 0
-21 -25 0
-21 -26 0
-21 -27 0
-21 -28 0
-21 -29 0
-21 -30 0
-22 -23 0
-22 -24 0
-22 -25 0
-22 -26 0
-22 -27 0
-22 -28 0
-22 -29 0
-22 -30 0
-23 -24 0
-23 -25 0
-23 -26 0
-23 -27 0
-23 -28 0
-23 -29 0
-23 -30 0
-24 -25 0
-24 -26 0
-24 -27 0
-24 -28 0
-24 -29 0
-24 -30 0
-25 -26 0
-25 -27 0
-25 -28 0
-25 -29 0
-25 -30 0
-26 -27 0
-26 -28 0
-26 -29 0
-26 -30 0
-27 -28 0
-27 -29 0
-27 -30 0
-28 -29 0
-28 -30 0
-29 -30 0
-274 250 16 0
-275 251 17 0
-276 252 18 0
-277 253 0
-278 254 19 0
-279 255 20 0
-280 256 21 0
-281 257 22 0
-282 258 0
-283 259 23 0
-284 260 24 0
-285 261 25 0
-286 262 26 0
-287 263 0
-288 264 27 0
-289 265 28 0
-290 266 0
-291 267 0
-292 268 0
-293 269 29 0
-294 270 30 0
-295 271 0
-296 272 0
-297 273 0
-31 -32 0
-31 -33 0
-31 -34 0
-31 -35 0
-31 -36 0
-31 -37 0
-31 -38 0
-31 -39 0
-31 -40 0
-31 -41 0
-31 -42 0
-31 -43 0
-31 -44 0
-31 -45 0
-32 -33 0
-32 -34 0
-32 -35 0
-32 -36 0
-32 -37 0
-32 -38 0
-32 -39 0
-32 -40 0
-32 -41 0
-32 -42 0
-32 -43 0
-32 -44 0
-32 -45 0
-33 -34 0
-33 -35 0
-33 -36 0
-33 -37 0
-33 -38 0
-33 -39 0
-33 -40 0
-33 -41 0
-33 -42 0
-33 -43 0
-33 -44 0
-33 -45 0
-34 -35 0
-34 -36 0
-34 -37 0
-34 -38 0
-34 -39 0
-34 -40 0
-34 -41 0
-34 -42 0
-34 -43 0
-34 -44 0
-34 -45 0
-35 -36 0
-35 -37 0
-35 -38 0
-35 -39 0
-35 -40 0
-35 -41 0
-35 -42 0
-35 -43 0
-35 -44 0
-35 -45 0
-36 -37 0
-36 -38 0
-36 -39 0
-36 -40 0
-36 -41 0
-36 -42 0
-36 -43 0
-36 -44 0
-36 -45 0
-37 -38 0
-37 -39 0
-37 -40 0
-37 -41 0
-37 -42 0
-37 -43 0
-37 -44 0
-37 -45 0
-38 -39 0
-38 -40 0
-38 -41 0
-38 -42 0
-38 -43 0
-38 -44 0
-38 -45 0
-39 -40 0
-39 -41 0
-39 -42 0
-39 -43 0
-39 -44 0
-39 -45 0
-40 -41 0
-40 -42 0
-40 -43 0
-40 -44 0
-40 -45 0
-41 -42 0
-41 -43 0
-41 -44 0
-41 -45 0
-42 -43 0
-42 -44 0
-42 -45 0
-43 -44 0
-43 -45 0
-44 -45 0
-298 274 31 0
-299 275 32 0
-300 276 33 0
-301 277 0
-302 278 34 0
-303 279 35 0
-304 280 36 0
-305 281 37 0
-306 282 0
-307 283 38 0
-308 284 39 0
-309 285 40 0
-310 286 41 0
-311 287 0
-312 288 42 0
-313 289 43 0
-314 290 0
-315 291 0
-316 292 0
-317 293 44 0
-318 294 45 0
-319 295 0
-320 296 0
-321 297 0
-46 -47 0
-46 -48 0
-46 -49 0
-46 -50 0
-46 -51 0
-46 -52 0
-46 -53 0
-46 -54 0
-46 -55 0
-46 -56 0
-46 -57 0
-46 -58 0
-46 -59 0
-46 -60 0
-47 -48 0
-47 -49 0
-47 -50 0
-47 -51 0
-47 -52 0
-47 -53 0
-47 -54 0
-47 -55 0
-47 -56 0
-47 -57 0
-47 -58 0
-47 -59 0
-47 -60 0
-48 -49 0
-48 -50 0
-48 -51 0
-48 -52 0
-48 -53 0
-48 -54 0
-48 -55 0
-48 -56 0
-48 -57 0
-48 -58 0
-48 -59 0
-48 -60 0
-49 -50 0
-49 -51 0
-49 -52 0
-49 -53 0
-49 -54 0
-49 -55 0
-49 -56 0
-49 -57 0
-49 -58 0
-49 -59 0
-49 -60 0
-50 -51 0
-50 -52 0
-50 -53 0
-50 -54 0
-50 -55 0
-50 -56 0
-50 -57 0
-50 -58 0
-50 -59 0
-50 -60 0
-51 -52 0
-51 -53 0
-51 -54 0
-51 -55 0
-51 -56 0
-51 -57 0
-51 -58 0
-51 -59 0
-51 -60 0
-52 -53 0
-52 -54 0
-52 -55 0
-52 -56 0
-52 -57 0
-52 -58 0
-52 -59 0
-52 -60 0
-53 -54 0
-53 -55 0
-53 -56 0
-53 -57 0
-53 -58 0
-53 -59 0
-53 -60 0
-54 -55 0
-54 -56 0
-54 -57 0
-54 -58 0
-54 -59 0
-54 -60 0
-55 -56 0
-55 -57 0
-55 -58 0
-55 -59 0
-55 -60 0
-56 -57 0
-56 -58 0
-56 -59 0
-56 -60 0
-57 -58 0
-57 -59 0
-57 -60 0
-58 -59 0
-58 -60 0
-59 -60 0
-322 298 46 0
-323 299 47 0
-324 300 48 0
-325 301 0
-326 302 49 0
-327 303 50 0
-328 304 51 0
-329 305 52 0
-330 306 0
-331 307 53 0
-332 308 54 0
-333 309 55 0
-334 310 56 0
-335 311 0
-336 312 57 0
-337 313 58 0
-338 314 0
-339 315 0
-340 316 0
-341 317 59 0
-342 318 60 0
-343 319 0
-344 320 0
-345 321 0
-61 -62 0
-61 -63 0
-61 -64 0
-61 -65 0
-61 -66 0
-61 -67 0
-61 -68 0
-61 -69 0
-61 -70 0
-61 -71 0
-61 -72 0
-61 -73 0
-61 -74 0
-61 -75 0
-62 -63 0
-62 -64 0
-62 -65 0
-62 -66 0
-62 -67 0
-62 -68 0
-62 -69 0
-62 -70 0
-62 -71 0
-62 -72 0
-62 -73 0
-62 -74 0
-62 -75 0
-63 -64 0
-63 -65 0
-63 -66 0
-63 -67 0
-63 -68 0
-63 -69 0
-63 -70 0
-63 -71 0
-63 -72 0
-63 -73 0
-63 -74 0
-63 -75 0
-64 -65 0
-64 -66 0
-64 -67 0
-64 -68 0
-64 -69 0
-64 -70 0
-64 -71 0
-64 -72 0
-64 -73 0
-64 -74 0
-64 -75 0
-65 -66 0
-65 -67 0
-65 -68 0
-65 -69 0
-65 -70 0
-65 -71 0
-65 -72 0
-65 -73 0
-65 -74 0
-65 -75 0
-66 -67 0
-66 -68 0
-66 -69 0
-66 -70 0
-66 -71 0
-66 -72 0
-66 -73 0
-66 -74 0
-66 -75 0
-67 -68 0
-67 -69 0
-67 -70 0
-67 -71 0
-67 -72 0
-67 -73 0
-67 -74 0
-67 -75 0
-68 -69 0
-68 -70 0
-68 -71 0
-68 -72 0
-68 -73 0
-68 -74 0
-68 -75 0
-69 -70 0
-69 -71 0
-69 -72 0
-69 -73 0
-69 -74 0
-69 -75 0
-70 -71 0
-70 -72 0
-70 -73 0
-70 -74 0
-70 -75 0
-71 -72 0
-71 -73 0
-71 -74 0
-71 -75 0
-72 -73 0
-72 -74 0
-72 -75 0
-73 -74 0
-73 -75 0
-74 -75 0
-346 322 61 0
-347 323 62 0
-348 324 63 0
-349 325 0
-350 326 64 0
-351 327 65 0
-352 328 66 0
-353 329 67 0
-354 330 0
-355 331 68 0
-356 332 69 0
-357 333 70 0
-358 334 71 0
-359 335 0
-360 336 72 0
-361 337 73 0
-362 338 0
-363 339 0
-364 340 0
-365 341 74 0
-366 342 75 0
-367 343 0
-368 344 0
-369 345 0
-76 -77 0
-76 -78 0
-76 -79 0
-76 -80 0
-76 -81 0
-76 -82 0
-76 -83 0
-76 -84 0
-76 -85 0
-76 -86 0
-76 -87 0
-76 -88 0
-76 -89 0
-76 -90 0
-77 -78 0
-77 -79 0
-77 -80 0
-77 -81 0
-77 -82 0
-77 -83 0
-77 -84 0
-77 -85 0
-77 -86 0
-77 -87 0
-77 -88 0
-77 -89 0
-77 -90 0
-78 -79 0
-78 -80 0
-78 -81 0
-78 -82 0
-78 -83 0
-78 -84 0
-78 -85 0
-78 -86 0
-78 -87 0
-78 -88 0
-78 -89 0
-78 -90 0
-79 -80 0
-79 -81 0
-79 -82 0
-79 -83 0
-79 -84 0
-79 -85 0
-79 -86 0
-79 -87 0
-79 -88 0
-79 -89 0
-79 -90 0
-80 -81 0
-80 -82 0
-80 -83 0
-80 -84 0
-80 -85 0
-80 -86 0
-80 -87 0
-80 -88 0
-80 -89 0
-80 -90 0
-81 -82 0
-81 -83 0
-81 -84 0
-81 -85 0
-81 -86 0
-81 -87 0
-81 -88 0
-81 -89 0
-81 -90 0
-82 -83 0
-82 -84 0
-82 -85 0
-82 -86 0
-82 -87 0
-82 -88 0
-82 -89 0
-82 -90 0
-83 -84 0
-83 -85 0
-83 -86 0
-83 -87 0
-83 -88 0
-83 -89 0
-83 -90 0
-84 -85 0
-84 -86 0
-84 -87 0
-84 -88 0
-84 -89 0
-84 -90 0
-85 -86 0
-85 -87 0
-85 -88 0
-85 -89 0
-85 -90 0
-86 -87 0
-86 -88 0
-86 -89 0
-86 -90 0
-87 -88 0
-87 -89 0
-87 -90 0
-88 -89 0
-88 -90 0
-89 -90 0
-370 346 76 0
-371 347 77 0
-372 348 78 0
-373 349 0
-374 350 79 0
-375 351 80 0
-376 352 81 0
-377 353 82 0
-378 354 0
-379 355 83 0
-380 356 84 0
-381 357 85 0
-382 358 86 0
-383 359 0
-384 360 87 0
-385 361 88 0
-386 362 0
-387 363 0
-388 364 0
-389 365 89 0
-390 366 90 0
-391 367 0
-392 368 0
-393 369 0
-91 -92 0
-91 -93 0
-91 -94 0
-91 -95 0
-91 -96 0
-91 -97 0
-91 -98 0
-91 -99 0
-91 -100 0
-91 -101 0
-91 -102 0
-91 -103 0
-91 -104 0
-91 -105 0
-92 -93 0
-92 -94 0
-92 -95 0
-92 -96 0
-92 -97 0
-92 -98 0
-92 -99 0
-92 -100 0
-92 -101 0
-92 -102 0
-92 -103 0
-92 -104 0
-92 -105 0
-93 -94 0
-93 -95 0
-93 -96 0
-93 -97 0
-93 -98 0
-93 -99 0
-93 -100 0
-93 -101 0
-93 -102 0
-93 -103 0
-93 -104 0
-93 -105 0
-94 -95 0
-94 -96 0
-94 -97 0
-94 -98 0
-94 -99 0
-94 -100 0
-94 -101 0
-94 -102 0
-94 -103 0
-94 -104 0
-94 -105 0
-95 -96 0
-95 -97 0
-95 -98 0
-95 -99 0
-95 -100 0
-95 -101 0
-95 -102 0
-95 -103 0
-95 -104 0
-95 -105 0
-96 -97 0
-96 -98 0
-96 -99 0
-96 -100 0
-96 -101 0
-96 -102 0
-96 -103 0
-96 -104 0
-96 -105 0
-97 -98 0
-97 -99 0
-97 -100 0
-97 -101 0
-97 -102 0
-97 -103 0
-97 -104 0
-97 -105 0
-98 -99 0
-98 -100 0
-98 -101 0
-98 -102 0
-98 -103 0
-98 -104 0
-98 -105 0
-99 -100 0
-99 -101 0
-99 -102 0
-99 -103 0
-99 -104 0
-99 -105 0
-100 -101 0
-100 -102 0
-100 -103 0
-100 -104 0
-100 -105 0
-101 -102 0
-101 -103 0
-101 -104 0
-101 -105 0
-102 -103 0
-102 -104 0
-102 -105 0
-103 -104 0
-103 -105 0
-104 -105 0
-394 370 91 0
-395 371 92 0
-396 372 93 0
-397 373 0
-398 374 94 0
-399 375 95 0
-400 376 96 0
-401 377 97 0
-402 378 0
-403 379 98 0
-404 380 99 0
-405 381 100 0
-406 382 101 0
-407 383 0
-408 384 102 0
-409 385 103 0
-410 386 0
-411 387 0
-412 388 0
-413 389 104 0
-414 390 105 0
-415 391 0
-416 392 0
-417 393 0
-106 -107 0
-106 -108 0
-106 -109 0
-106 -110 0
-106 -111 0
-106 -112 0
-106 -113 0
-106 -114 0
-106 -115 0
-106 -116 0
-106 -117 0
-106 -118 0
-106 -119 0
-106 -120 0
-107 -108 0
-107 -109 0
-107 -110 0
-107 -111 0
-107 -112 0
-107 -113 0
-107 -114 0
-107 -115 0
-107 -116 0
-107 -117 0
-107 -118 0
-107 -119 0
-107 -120 0
-108 -109 0
-108 -110 0
-108 -111 0
-108 -112 0
-108 -113 0
-108 -114 0
-108 -115 0
-108 -116 0
-108 -117 0
-108 -118 0
-108 -119 0
-108 -120 0
-109 -110 0
-109 -111 0
-109 -112 0
-109 -113 0
-109 -114 0
-109 -115 0
-109 -116 0
-109 -117 0
-109 -118 0
-109 -119 0
-109 -120 0
-110 -111 0
-110 -112 0
-110 -113 0
-110 -114 0
-110 -115 0
-110 -116 0
-110 -117 0
-110 -118 0
-110 -119 0
-110 -120 0
-111 -112 0
-111 -113 0
-111 -114 0
-111 -115 0
-111 -116 0
-111 -117 0
-111 -118 0
-111 -119 0
-111 -120 0
-112 -113 0
-112 -114 0
-112 -115 0
-112 -116 0
-112 -117 0
-112 -118 0
-112 -119 0
-112 -120 0
-113 -114 0
-113 -115 0
-113 -116 0
-113 -117 0
-113 -118 0
-113 -119 0
-113 -120 0
-114 -115 0
-114 -116 0
-114 -117 0
-114 -118 0
-114 -119 0
-114 -120 0
-115 -116 0
-115 -117 0
-115 -118 0
-115 -119 0
-115 -120 0
-116 -117 0
-116 -118 0
-116 -119 0
-116 -120 0
-117 -118 0
-117 -119 0
-117 -120 0
-118 -119 0
-118 -120 0
-119 -120 0
-418 394 106 0
-419 395 107 0
-420 396 108 0
-421 397 0
-422 398 109 0
-423 399 110 0
-424 400 111 0
-425 401 112 0
-426 402 0
-427 403 113 0
-428 404 114 0
-429 405 115 0
-430 406 116 0
-431 407 0
-432 408 117 0
-433 409 118 0
-434 410 0
-435 411 0
-436 412 0
-437 413 119 0
-438 414 120 0
-439 415 0
-440 416 0
-441 417 0
-121 -122 0
-121 -123 0
-121 -124 0
-121 -125 0
-121 -126 0
-121 -127 0
-121 -128 0
-121 -129 0
-121 -130 0
-121 -131 0
-121 -132 0
-121 -133 0
-121 -134 0
-121 -135 0
-122 -123 0
-122 -124 0
-122 -125 0
-122 -126 0
-122 -127 0
-122 -128 0
-122 -129 0
-122 -130 0
-122 -131 0
-122 -132 0
-122 -133 0
-122 -134 0
-122 -135 0
-123 -124 0
-123 -125 0
-123 -126 0
-123 -127 0
-123 -128 0
-123 -129 0
-123 -130 0
-123 -131 0
-123 -132 0
-123 -133 0
-123 -134 0
-123 -135 0
-124 -125 0
-124 -126 0
-124 -127 0
-124 -128 0
-124 -129 0
-124 -130 0
-124 -131 0
-124 -132 0
-124 -133 0
-124 -134 0
-124 -135 0
-125 -126 0
-125 -127 0
-125 -128 0
-125 -129 0
-125 -130 0
-125 -131 0
-125 -132 0
-125 -133 0
-125 -134 0
-125 -135 0
-126 -127 0
-126 -128 0
-126 -129 0
-126 -130 0
-126 -131 0
-126 -132 0
-126 -133 0
-126 -134 0
-126 -135 0
-127 -128 0
-127 -129 0
-127 -130 0
-127 -131 0
-127 -132 0
-127 -133 0
-127 -134 0
-127 -135 0
-128 -129 0
-128 -130 0
-128 -131 0
-128 -132 0
-128 -133 0
-128 -134 0
-128 -135 0
-129 -130 0
-129 -131 0
-129 -132 0
-129 -133 0
-129 -134 0
-129 -135 0
-130 -131 0
-130 -132 0
-130 -133 0
-130 -134 0
-130 -135 0
-131 -132 0
-131 -133 0
-131 -134 0
-131 -135 0
-132 -133 0
-132 -134 0
-132 -135 0
-133 -134 0
-133 -135 0
-134 -135 0
-442 418 121 0
-443 419 122 0
-444 420 123 0
-445 421 0
-446 422 124 0
-447 423 125 0
-448 424 126 0
-449 425 127 0
-450 426 0
-451 427 128 0
-452 428 129 0
-453 429 130 0
-454 430 131 0
-455 431 0
-456 432 132 0
-457 433 133 0
-458 434 0
-459 435 0
-460 436 0
-461 437 134 0
-462 438 135 0
-463 439 0
-464 440 0
-465 441 0
-136 -137 0
-136 -138 0
-136 -139 0
-136 -140 0
-136 -141 0
-136 -142 0
-136 -143 0
-136 -144 0
-136 -145 0
-136 -146 0
-136 -147 0
-136 -148 0
-136 -149 0
-136 -150 0
-137 -138 0
-137 -139 0
-137 -140 0
-137 -141 0
-137 -142 0
-137 -143 0
-137 -144 0
-137 -145 0
-137 -146 0
-137 -147 0
-137 -148 0
-137 -149 0
-137 -150 0
-138 -139 0
-138 -140 0
-138 -141 0
-138 -142 0
-138 -143 0
-138 -144 0
-138 -145 0
-138 -146 0
-138 -147 0
-138 -148 0
-138 -149 0
-138 -150 0
-139 -140 0
-139 -141 0
-139 -142 0
-139 -143 0
-139 -144 0
-139 -145 0
-139 -146 0
-139 -147 0
-139 -148 0
-139 -149 0
-139 -150 0
-140 -141 0
-140 -142 0
-140 -143 0
-140 -144 0
-140 -145 0
-140 -146 0
-140 -147 0
-140 -148 0
-140 -149 0
-140 -150 0
-141 -142 0
-141 -143 0
-141 -144 0
-141 -145 0
-141 -146 0
-141 -147 0
-141 -148 0
-141 -149 0
-141 -150 0
-142 -143 0
-142 -144 0
-142 -145 0
-142 -146 0
-142 -147 0
-142 -148 0
-142 -149 0
-142 -150 0
-143 -144 0
-143 -145 0
-143 -146 0
-143 -147 0
-143 -148 0
-143 -149 0
-143 -150 0
-144 -145 0
-144 -146 0
-144 -147 0
-144 -148 0
-144 -149 0
-144 -150 0
-145 -146 0
-145 -147 0
-145 -148 0
-145 -149 0
-145 -150 0
-146 -147 0
-146 -148 0
-146 -149 0
-146 -150 0
-147 -148 0
-147 -149 0
-147 -150 0
-148 -149 0
-148 -150 0
-149 -150 0
-466 442 136 0
-467 443 137 0
-468 444 138 0
-469 445 0
-470 446 139 0
-471 447 140 0
-472 448 141 0
-473 449 142 0
-474 450 0
-475 451 143 0
-476 452 144 0
-477 453 145 0
-478 454 146 0
-479 455 0
-480 456 147 0
-481 457 148 0
-482 458 0
-483 459 0
-484 460 0
-485 461 149 0
-486 462 150 0
-487 463 0
-488 464 0
-489 465 0
-151 -152 0
-151 -153 0
-151 -154 0
-151 -155 0
-151 -156 0
-151 -157 0
-151 -158 0
-151 -159 0
-151 -160 0
-151 -161 0
-151 -162 0
-151 -163 0
-151 -164 0
-151 -165 0
-152 -153 0
-152 -154 0
-152 -155 0
-152 -156 0
-152 -157 0
-152 -158 0
-152 -159 0
-152 -160 0
-152 -161 0
-152 -162 0
-152 -163 0
-152 -164 0
-152 -165 0
-153 -154 0
-153 -155 0
-153 -156 0
-153 -157 0
-153 -158 0
-153 -159 0
-153 -160 0
-153 -161 0
-153 -162 0
-153 -163 0
-153 -164 0
-153 -165 0
-154 -155 0
-154 -156 0
-154 -157 0
-154 -158 0
-154 -159 0
-154 -160 0
-154 -161 0
-154 -162 0
-154 -163 0
-154 -164 0
-154 -165 0
-155 -156 0
-155 -157 0
-155 -158 0
-155 -159 0
-155 -160 0
-155 -161 0
-155 -162 0
-155 -163 0
-155 -164 0
-155 -165 0
-156 -157 0
-156 -158 0
-156 -159 0
-156 -160 0
-156 -161 0
-156 -162 0
-156 -163 0
-156 -164 0
-156 -165 0
-157 -158 0
-157 -159 0
-157 -160 0
-157 -161 0
-157 -162 0
-157 -163 0
-157 -164 0
-157 -165 0
-158 -159 0
-158 -160 0
-158 -161 0
-158 -162 0
-158 -163 0
-158 -164 0
-158 -165 0
-159 -160 0
-159 -161 0
-159 -162 0
-159 -163 0
-159 -164 0
-159 -165 0
-160 -161 0
-160 -162 0
-160 -163 0
-160 -164 0
-160 -165 0
-161 -162 0
-161 -163 0
-161 -164 0
-161 -165 0
-162 -163 0
-162 -164 0
-162 -165 0
-163 -164 0
-163 -165 0
-164 -165 0
-490 466 151 0
-491 467 152 0
-492 468 153 0
-493 469 0
-494 470 154 0
-495 471 155 0
-496 472 156 0
-497 473 157 0
-498 474 0
-499 475 158 0
-500 476 159 0
-501 477 160 0
-502 478 161 0
-503 479 0
-504 480 162 0
-505 481 163 0
-506 482 0
-507 483 0
-508 484 0
-509 485 164 0
-510 486 165 0
-511 487 0
-512 488 0
-513 489 0
-166 -167 0
-166 -168 0
-166 -169 0
-166 -170 0
-166 -171 0
-166 -172 0
-166 -173 0
-166 -174 0
-166 -175 0
-166 -176 0
-166 -177 0
-166 -178 0
-166 -179 0
-166 -180 0
-167 -168 0
-167 -169 0
-167 -170 0
-167 -171 0
-167 -172 0
-167 -173 0
-167 -174 0
-167 -175 0
-167 -176 0
-167 -177 0
-167 -178 0
-167 -179 0
-167 -180 0
-168 -169 0
-168 -170 0
-168 -171 0
-168 -172 0
-168 -173 0
-168 -174 0
-168 -175 0
-168 -176 0
-168 -177 0
-168 -178 0
-168 -179 0
-168 -180 0
-169 -170 0
-169 -171 0
-169 -172 0
-169 -173 0
-169 -174 0
-169 -175 0
-169 -176 0
-169 -177 0
-169 -178 0
-169 -179 0
-169 -180 0
-170 -171 0
-170 -172 0
-170 -173 0
-170 -174 0
-170 -175 0
-170 -176 0
-170 -177 0
-170 -178 0
-170 -179 0
-170 -180 0
-171 -172 0
-171 -173 0
-171 -174 0
-171 -175 0
-171 -176 0
-171 -177 0
-171 -178 0
-171 -179 0
-171 -180 0
-172 -173 0
-172 -174 0
-172 -175 0
-172 -176 0
-172 -177 0
-172 -178 0
-172 -179 0
-172 -180 0
-173 -174 0
-173 -175 0
-173 -176 0
-173 -177 0
-173 -178 0
-173 -179 0
-173 -180 0
-174 -175 0
-174 -176 0
-174 -177 0
-174 -178 0
-174 -179 0
-174 -180 0
-175 -176 0
-175 -177 0
-175 -178 0
-175 -179 0
-175 -180 0
-176 -177 0
-176 -178 0
-176 -179 0
-176 -180 0
-177 -178 0
-177 -179 0
-177 -180 0
-178 -179 0
-178 -180 0
-179 -180 0
-514 490 166 0
-515 491 167 0
-516 492 168 0
-517 493 0
-518 494 169 0
-519 495 170 0
-520 496 171 0
-521 497 172 0
-522 498 0
-523 499 173 0
-524 500 174 0
-525 501 175 0
-526 502 176 0
-527 503 0
-528 504 177 0
-529 505 178 0
-530 506 0
-531 507 0
-532 508 0
-533 509 179 0
-534 510 180 0
-535 511 0
-536 512 0
-537 513 0
-181 -182 0
-181 -183 0
-181 -184 0
-181 -185 0
-181 -186 0
-181 -187 0
-181 -188 0
-181 -189 0
-181 -190 0
-181 -191 0
-181 -192 0
-181 -193 0
-181 -194 0
-181 -195 0
-182 -183 0
-182 -184 0
-182 -185 0
-182 -186 0
-182 -187 0
-182 -188 0
-182 -189 0
-182 -190 0
-182 -191 0
-182 -192 0
-182 -193 0
-182 -194 0
-182 -195 0
-183 -184 0
-183 -185 0
-183 -186 0
-183 -187 0
-183 -188 0
-183 -189 0
-183 -190 0
-183 -191 0
-183 -192 0
-183 -193 0
-183 -194 0
-183 -195 0
-184 -185 0
-184 -186 0
-184 -187 0
-184 -188 0
-184 -189 0
-184 -190 0
-184 -191 0
-184 -192 0
-184 -193 0
-184 -194 0
-184 -195 0
-185 -186 0
-185 -187 0
-185 -188 0
-185 -189 0
-185 -190 0
-185 -191 0
-185 -192 0
-185 -193 0
-185 -194 0
-185 -195 0
-186 -187 0
-186 -188 0
-186 -189 0
-186 -190 0
-186 -191 0
-186 -192 0
-186 -193 0
-186 -194 0
-186 -195 0
-187 -188 0
-187 -189 0
-187 -190 0
-187 -191 0
-187 -192 0
-187 -193 0
-187 -194 0
-187 -195 0
-188 -189 0
-188 -190 0
-188 -191 0
-188 -192 0
-188 -193 0
-188 -194 0
-188 -195 0
-189 -190 0
-189 -191 0
-189 -192 0
-189 -193 0
-189 -194 0
-189 -195 0
-190 -191 0
-190 -192 0
-190 -193 0
-190 -194 0
-190 -195 0
-191 -192 0
-191 -193 0
-191 -194 0
-191 -195 0
-192 -193 0
-192 -194 0
-192 -195 0
-193 -194 0
-193 -195 0
-194 -195 0
-538 514 181 0
-539 515 182 0
-540 516 183 0
-541 517 0
-542 518 184 0
-543 519 185 0
-544 520 186 0
-545 521 187 0
-546 522 0
-547 523 188 0
-548 524 189 0
-549 525 190 0
-550 526 191 0
-551 527 0
-552 528 192 0
-553 529 193 0
-554 530 0
-555 531 0
-556 532 0
-557 533 194 0
-558 534 195 0
-559 535 0
-560 536 0
-561 537 0
-196 -197 0
-196 -198 0
-196 -199 0
-196 -200 0
-196 -201 0
-196 -202 0
-196 -203 0
-196 -204 0
-196 -205 0
-196 -206 0
-196 -207 0
-196 -208 0
-196 -209 0
-196 -210 0
-197 -198 0
-197 -199 0
-197 -200 0
-197 -201 0
-197 -202 0
-197 -203 0
-197 -204 0
-197 -205 0
-197 -206 0
-197 -207 0
-197 -208 0
-197 -209 0
-197 -210 0
-198 -199 0
-198 -200 0
-198 -201 0
-198 -202 0
-198 -203 0
-198 -204 0
-198 -205 0
-198 -206 0
-198 -207 0
-198 -208 0
-198 -209 0
-198 -210 0
-199 -200 0
-199 -201 0
-199 -202 0
-199 -203 0
-199 -204 0
-199 -205 0
-199 -206 0
-199 -207 0
-199 -208 0
-199 -209 0
-199 -210 0
-200 -201 0
-200 -202 0
-200 -203 0
-200 -204 0
-200 -205 0
-200 -206 0
-200 -207 0
-200 -208 0
-200 -209 0
-200 -210 0
-201 -202 0
-201 -203 0
-201 -204 0
-201 -205 0
-201 -206 0
-201 -207 0
-201 -208 0
-201 -209 0
-201 -210 0
-202 -203 0
-202 -204 0
-202 -205 0
-202 -206 0
-202 -207 0
-202 -208 0
-202 -209 0
-202 -210 0
-203 -204 0
-203 -205 0
-203 -206 0
-203 -207 0
-203 -208 0
-203 -209 0
-203 -210 0
-204 -205 0
-204 -206 0
-204 -207 0
-204 -208 0
-204 -209 0
-204 -210 0
-205 -206 0
-205 -207 0
-205 -208 0
-205 -209 0
-205 -210 0
-206 -207 0
-206 -208 0
-206 -209 0
-206 -210 0
-207 -208 0
-207 -209 0
-207 -210 0
-208 -209 0
-208 -210 0
-209 -210 0
-562 538 196 0
-563 539 197 0
-564 540 198 0
-565 541 0
-566 542 199 0
-567 543 200 0
-568 544 201 0
-569 545 202 0
-570 546 0
-571 547 203 0
-572 548 204 0
-573 549 205 0
-574 550 206 0
-575 551 0
-576 552 207 0
-577 553 208 0
-578 554 0
-579 555 0
-580 556 0
-581 557 209 0
-582 558 210 0
-583 559 0
-584 560 0
-585 561 0
-211 -212 0
-211 -213 0
-211 -214 0
-211 -215 0
-211 -216 0
-211 -217 0
-211 -218 0
-211 -219 0
-211 -220 0
-211 -221 0
-211 -222 0
-211 -223 0
-211 -224 0
-211 -225 0
-212 -213 0
-212 -214 0
-212 -215 0
-212 -216 0
-212 -217 0
-212 -218 0
-212 -219 0
-212 -220 0
-212 -221 0
-212 -222 0
-212 -223 0
-212 -224 0
-212 -225 0
-213 -214 0
-213 -215 0
-213 -216 0
-213 -217 0
-213 -218 0
-213 -219 0
-213 -220 0
-213 -221 0
-213 -222 0
-213 -223 0
-213 -224 0
-213 -225 0
-214 -215 0
-214 -216 0
-214 -217 0
-214 -218 0
-214 -219 0
-214 -220 0
-214 -221 0
-214 -222 0
-214 -223 0
-214 -224 0
-214 -225 0
-215 -216 0
-215 -217 0
-215 -218 0
-215 -219 0
-215 -220 0
-215 -221 0
-215 -222 0
-215 -223 0
-215 -224 0
-215 -225 0
-216 -217 0
-216 -218 0
-216 -219 0
-216 -220 0
-216 -221 0
-216 -222 0
-216 -223 0
-216 -224 0
-216 -225 0
-217 -218 0
-217 -219 0
-217 -220 0
-217 -221 0
-217 -222 0
-217 -223 0
-217 -224 0
-217 -225 0
-218 -219 0
-218 -220 0
-218 -221 0
-218 -222 0
-218 -223 0
-218 -224 0
-218 -225 0
-219 -220 0
-219 -221 0
-219 -222 0
-219 -223 0
-219 -224 0
-219 -225 0
-220 -221 0
-220 -222 0
-220 -223 0
-220 -224 0
-220 -225 0
-221 -222 0
-221 -223 0
-221 -224 0
-221 -225 0
-222 -223 0
-222 -224 0
-222 -225 0
-223 -224 0
-223 -225 0
-224 -225 0
-586 562 211 0
-587 563 212 0
-588 564 213 0
-589 565 0
-590 566 214 0
-591 567 215 0
-592 568 216 0
-593 569 217 0
-594 570 0
-595 571 218 0
-596 572 219 0
-597 573 220 0
-598 574 221 0
-599 575 0
-600 576 222 0
-601 577 223 0
-602 578 0
-603 579 0
-604 580 0
-605 581 224 0
-606 582 225 0
-607 583 0
-608 584 0
-609 585 0
-226 0
-227 0
-228 0
229 0
-230 0
-231 0
-232 0
-233 0
234 0
-235 0
-236 0
-237 0
-238 0
239 0
-240 0
-241 0
242 0
243 0
244 0
-245 0
-246 0
247 0
248 0
249 0
1 16 31 46 61 76 91 106 121 136 151 166 181 196 211 0
2 17 32 47 62 77 92 107 122 137 152 167 182 197 212 0
3 18 33 48 63 78 93 108 123 138 153 168 183 198 213 0
4 19 34 49 64 79 94 109 124 139 154 169 184 199 214 0
5 20 35 50 65 80 95 110 125 140 155 170 185 200 215 0
6 21 36 51 66 81 96 111 126 141 156 171 186 201 216 0
7 22 37 52 67 82 97 112 127 142 157 172 187 202 217 0
8 23 38 53 68 83 98 113 128 143 158 173 188 203 218 0
9 24 39 54 69 84 99 114 129 144 159 174 189 204 219 0
10 25 40 55 70 85 100 115 130 145 160 175 190 205 220 0
11 26 41 56 71 86 101 116 131 146 161 176 191 206 221 0
12 27 42 57 72 87 102 117 132 147 162 177 192 207 222 0
13 28 43 58 73 88 103 118 133 148 163 178 193 208 223 0
14 29 44 59 74 89 104 119 134 149 164 179 194 209 224 0
15 30 45 60 75 90 105 120 135 150 165 180 195 210 225 0
-610 227 0
-610 228 0
-611 227 0
-611 228 0
-1 610 611 0
-612 226 0
-612 228 0
-613 226 0
-613 228 0
-2 612 613 0
-614 226 0
-614 227 0
-615 226 0
-615 227 0
-3 614 615 0
-616 231 0
-616 242 0
-617 231 0
-617 242 0
-618 234 0
-618 240 0
-619 234 0
-619 240 0
-4 616 617 618 619 0
-620 230 0
-620 242 0
-621 230 0
-621 242 0
-622 234 0
-622 243 0
-623 234 0
-623 243 0
-5 620 621 622 623 0
-624 233 0
-624 247 0
-625 233 0
-625 247 0
-626 234 0
-626 245 0
-627 234 0
-627 245 0
-6 624 625 626 627 0
-628 232 0
-628 247 0
-629 232 0
-629 247 0
-630 234 0
-630 248 0
-631 234 0
-631 248 0
-7 628 629 630 631 0
-632 236 0
-632 242 0
-633 236 0
-633 242 0
-634 239 0
-634 241 0
-635 239 0
-635 241 0
-8 632 633 634 635 0
-636 235 0
-636 242 0
-637 235 0
-637 242 0
-638 239 0
-638 244 0
-639 239 0
-639 244 0
-9 636 637 638 639 0
-640 238 0
-640 247 0
-641 238 0
-641 247 0
-642 239 0
-642 246 0
-643 239 0
-643 246 0
-10 640 641 642 643 0
-644 237 0
-644 247 0
-645 237 0
-645 247 0
-646 239 0
-646 249 0
-647 239 0
-647 249 0
-11 644 645 646 647 0
-648 230 0
-648 234 0
-649 230 0
-649 234 0
-650 242 0
-650 243 0
-651 242 0
-651 243 0
-12 648 649 650 651 0
-652 235 0
-652 239 0
-653 235 0
-653 239 0
-654 242 0
-654 244 0
-655 242 0
-655 244 0
-13 652 653 654 655 0
-656 232 0
-656 234 0
-657 232 0
-657 234 0
-658 247 0
-658 248 0
-659 247 0
-659 248 0
-14 656 657 658 659 0
-660 237 0
-660 239 0
-661 237 0
-661 239 0
-662 247 0
-662 249 0
-663 247 0
-663 249 0
-15 660 661 662 663 0
-664 251 0
-664 252 0
-665 251 0
-665 252 0
-16 664 665 0
-666 250 0
-666 252 0
-667 250 0
-667 252 0
-17 666 667 0
-668 250 0
-668 251 0
-669 250 0
-669 251 0
-18 668 669 0
-670 255 0
-670 266 0
-671 255 0
-671 266 0
-672 258 0
-672 264 0
-673 258 0
-673 264 0
-19 670 671 672 673 0
-674 254 0
-674 266 0
-675 254 0
-675 266 0
-676 258 0
-676 267 0
-677 258 0
-677 267 0
-20 674 675 676 677 0
-678 257 0
-678 271 0
-679 257 0
-679 271 0
-680 258 0
-680 269 0
-681 258 0
-681 269 0
-21 678 679 680 681 0
-682 256 0
-682 271 0
-683 256 0
-683 271 0
-684 258 0
-684 272 0
-685 258 0
-685 272 0
-22 682 683 684 685 0
-686 260 0
-686 266 0
-687 260 0
-687 266 0
-688 263 0
-688 265 0
-689 263 0
-689 265 0
-23 686 687 688 689 0
-690 259 0
-690 266 0
-691 259 0
-691 266 0
-692 263 0
-692 268 0
-693 263 0
-693 268 0
-24 690 691 692 693 0
-694 262 0
-694 271 0
-695 262 0
-695 271 0
-696 263 0
-696 270 0
-697 263 0
-697 270 0
-25 694 695 696 697 0
-698 261 0
-698 271 0
-699 261 0
-699 271 0
-700 263 0
-700 273 0
-701 263 0
-701 273 0
-26 698 699 700 701 0
-702 254 0
-702 258 0
-703 254 0
-703 258 0
-704 266 0
-704 267 0
-705 266 0
-705 267 0
-27 702 703 704 705 0
-706 259 0
-706 263 0
-707 259 0
-707 263 0
-708 266 0
-708 268 0
-709 266 0
-709 268 0
-28 706 707 708 709 0
-710 256 0
-710 258 0
-711 256 0
-711 258 0
-712 271 0
-712 272 0
-713 271 0
-713 272 0
-29 710 711 712 713 0
-714 261 0
-714 263 0
-715 261 0
-715 263 0
-716 271 0
-716 273 0
-717 271 0
-717 273 0
-30 714 715 716 717 0
-718 275 0
-718 276 0
-719 275 0
-719 276 0
-31 718 719 0
-720 274 0
-720 276 0
-721 274 0
-721 276 0
-32 720 721 0
-722 274 0
-722 275 0
-723 274 0
-723 275 0
-33 722 723 0
-724 279 0
-724 290 0
-725 279 0
-725 290 0
-726 282 0
-726 288 0
-727 282 0
-727 288 0
-34 724 725 726 727 0
-728 278 0
-728 290 0
-729 278 0
-729 290 0
-730 282 0
-730 291 0
-731 282 0
-731 291 0
-35 728 729 730 731 0
-732 281 0
-732 295 0
-733 281 0
-733 295 0
-734 282 0
-734 293 0
-735 282 0
-735 293 0
-36 732 733 734 735 0
-736 280 0
-736 295 0
-737 280 0
-737 295 0
-738 282 0
-738 296 0
-739 282 0
-739 296 0
-37 736 737 738 739 0
-740 284 0
-740 290 0
-741 284 0
-741 290 0
-742 287 0
-742 289 0
-743 287 0
-743 289 0
-38 740 741 742 743 0
-744 283 0
-744 290 0
-745 283 0
-745 290 0
-746 287 0
-746 292 0
-747 287 0
-747 292 0
-39 744 745 746 747 0
-748 286 0
-748 295 0
-749 286 0
-749 295 0
-750 287 0
-750 294 0
-751 287 0
-751 294 0
-40 748 749 750 751 0
-752 285 0
-752 295 0
-753 285 0
-753 295 0
-754 287 0
-754 297 0
-755 287 0
-755 297 0
-41 752 753 754 755 0
-756 278 0
-756 282 0
-757 278 0
-757 282 0
-758 290 0
-758 291 0
-759 290 0
-759 291 0
-42 756 757 758 759 0
-760 283 0
-760 287 0
-761 283 0
-761 287 0
-762 290 0
-762 292 0
-763 290 0
-763 292 0
-43 760 761 762 763 0
-764 280 0
-764 282 0
-765 280 0
-765 282 0
-766 295 0
-766 296 0
-767 295 0
-767 296 0
-44 764 765 766 767 0
-768 285 0
-768 287 0
-769 285 0
-769 287 0
-770 295 0
-770 297 0
-771 295 0
-771 297 0
-45 768 769 770 771 0
-772 299 0
-772 300 0
-773 299 0
-773 300 0
-46 772 773 0
-774 298 0
-774 300 0
-775 298 0
-775 300 0
-47 774 775 0
-776 298 0
-776 299 0
-777 298 0
-777 299 0
-48 776 777 0
-778 303 0
-778 314 0
-779 303 0
-779 314 0
-780 306 0
-780 312 0
-781 306 0
-781 312 0
-49 778 779 780 781 0
-782 302 0
-782 314 0
-783 302 0
-783 314 0
-784 306 0
-784 315 0
-785 306 0
-785 315 0
-50 782 783 784 785 0
-786 305 0
-786 319 0
-787 305 0
-787 319 0
-788 306 0
-788 317 0
-789 306 0
-789 317 0
-51 786 787 788 789 0
-790 304 0
-790 319 0
-791 304 0
-791 319 0
-792 306 0
-792 320 0
-793 306 0
-793 320 0
-52 790 791 792 793 0
-794 308 0
-794 314 0
-795 308 0
-795 314 0
-796 311 0
-796 313 0
-797 311 0
-797 313 0
-53 794 795 796 797 0
-798 307 0
-798 314 0
-799 307 0
-799 314 0
-800 311 0
-800 316 0
-801 311 0
-801 316 0
-54 798 799 800 801 0
-802 310 0
-802 319 0
-803 310 0
-803 319 0
-804 311 0
-804 318 0
-805 311 0
-805 318 0
-55 802 803 804 805 0
-806 309 0
-806 319 0
-807 309 0
-807 319 0
-808 311 0
-808 321 0
-809 311 0
-809 321 0
-56 806 807 808 809 0
-810 302 0
-810 306 0
-811 302 0
-811 306 0
-812 314 0
-812 315 0
-813 314 0
-813 315 0
-57 810 811 812 813 0
-814 307 0
-814 311 0
-815 307 0
-815 311 0
-816 314 0
-816 316 0
-817 314 0
-817 316 0
-58 814 815 816 817 0
-818 304 0
-818 306 0
-819 304 0
-819 306 0
-820 319 0
-820 320 0
-821 319 0
-821 320 0
-59 818 819 820 821 0
-822 309 0
-822 311 0
-823 309 0
-823 311 0
-824 319 0
-824 321 0
-825 319 0
-825 321 0
-60 822 823 824 825 0
-826 323 0
-826 324 0
-827 323 0
-827 324 0
-61 826 827 0
-828 322 0
-828 324 0
-829 322 0
-829 324 0
-62 828 829 0
-830 322 0
-830 323 0
-831 322 0
-831 323 0
-63 830 831 0
-832 327 0
-832 338 0
-833 327 0
-833 338 0
-834 330 0
-834 336 0
-835 330 0
-835 336 0
-64 832 833 834 835 0
-836 326 0
-836 338 0
-837 326 0
-837 338 0
-838 330 0
-838 339 0
-839 330 0
-839 339 0
-65 836 837 838 839 0
-840 329 0
-840 343 0
-841 329 0
-841 343 0
-842 330 0
-842 341 0
-843 330 0
-843 341 0
-66 840 841 842 843 0
-844 328 0
-844 343 0
-845 328 0
-845 343 0
-846 330 0
-846 344 0
-847 330 0
-847 344 0
-67 844 845 846 847 0
-848 332 0
-848 338 0
-849 332 0
-849 338 0
-850 335 0
-850 337 0
-851 335 0
-851 337 0
-68 848 849 850 851 0
-852 331 0
-852 338 0
-853 331 0
-853 338 0
-854 335 0
-854 340 0
-855 335 0
-855 340 0
-69 852 853 854 855 0
-856 334 0
-856 343 0
-857 334 0
-857 343 0
-858 335 0
-858 342 0
-859 335 0
-859 342 0
-70 856 857 858 859 0
-860 333 0
-860 343 0
-861 333 0
-861 343 0
-862 335 0
-862 345 0
-863 335 0
-863 345 0
-71 860 861 862 863 0
-864 326 0
-864 330 0
-865 326 0
-865 330 0
-866 338 0
-866 339 0
-867 338 0
-867 339 0
-72 864 865 866 867 0
-868 331 0
-868 335 0
-869 331 0
-869 335 0
-870 338 0
-870 340 0
-871 338 0
-871 340 0
-73 868 869 870 871 0
-872 328 0
-872 330 0
-873 328 0
-873 330 0
-874 343 0
-874 344 0
-875 343 0
-875 344 0
-74 872 873 874 875 0
-876 333 0
-876 335 0
-877 333 0
-877 335 0
-878 343 0
-878 345 0
-879 343 0
-879 345 0
-75 876 877 878 879 0
-880 347 0
-880 348 0
-881 347 0
-881 348 0
-76 880 881 0
-882 346 0
-882 348 0
-883 346 0
-883 348 0
-77 882 883 0
-884 346 0
-884 347 0
-885 346 0
-885 347 0
-78 884 885 0
-886 351 0
-886 362 0
-887 351 0
-887 362 0
-888 354 0
-888 360 0
-889 354 0
-889 360 0
-79 886 887 888 889 0
-890 350 0
-890 362 0
-891 350 0
-891 362 0
-892 354 0
-892 363 0
-893 354 0
-893 363 0
-80 890 891 892 893 0
-894 353 0
-894 367 0
-895 353 0
-895 367 0
-896 354 0
-896 365 0
-897 354 0
-897 365 0
-81 894 895 896 897 0
-898 352 0
-898 367 0
-899 352 0
-899 367 0
-900 354 0
-900 368 0
-901 354 0
-901 368 0
-82 898 899 900 901 0
-902 356 0
-902 362 0
-903 356 0
-903 362 0
-904 359 0
-904 361 0
-905 359 0
-905 361 0
-83 902 903 904 905 0
-906 355 0
-906 362 0
-907 355 0
-907 362 0
-908 359 0
-908 364 0
-909 359 0
-909 364 0
-84 906 907 908 909 0
-910 358 0
-910 367 0
-911 358 0
-911 367 0
-912 359 0
-912 366 0
-913 359 0
-913 366 0
-85 910 911 912 913 0
-914 357 0
-914 367 0
-915 357 0
-915 367 0
-916 359 0
-916 369 0
-917 359 0
-917 369 0
-86 914 915 916 917 0
-918 350 0
-918 354 0
-919 350 0
-919 354 0
-920 362 0
-920 363 0
-921 362 0
-921 363 0
-87 918 919 920 921 0
-922 355 0
-922 359 0
-923 355 0
-923 359 0
-924 362 0
-924 364 0
-925 362 0
-925 364 0
-88 922 923 924 925 0
-926 352 0
-926 354 0
-927 352 0
-927 354 0
-928 367 0
-928 368 0
-929 367 0
-929 368 0
-89 926 927 928 929 0
-930 357 0
-930 359 0
-931 357 0
-931 359 0
-932 367 0
-932 369 0
-933 367 0
-933 369 0
-90 930 931 932 933 0
-934 371 0
-934 372 0
-935 371 0
-935 372 0
-91 934 935 0
-936 370 0
-936 372 0
-937 370 0
-937 372 0
-92 936 937 0
-938 370 0
-938 371 0
-939 370 0
-939 371 0
-93 938 939 0
-940 375 0
-940 386 0
-941 375 0
-941 386 0
-942 378 0
-942 384 0
-943 378 0
-943 384 0
-94 940 941 942 943 0
-944 374 0
-944 386 0
-945 374 0
-945 386 0
-946 378 0
-946 387 0
-947 378 0
-947 387 0
-95 944 945 946 947 0
-948 377 0
-948 391 0
-949 377 0
-949 391 0
-950 378 0
-950 389 0
-951 378 0
-951 389 0
-96 948 949 950 951 0
-952 376 0
-952 391 0
-953 376 0
-953 391 0
-954 378 0
-954 392 0
-955 378 0
-955 392 0
-97 952 953 954 955 0
-956 380 0
-956 386 0
-957 380 0
-957 386 0
-958 383 0
-958 385 0
-959 383 0
-959 385 0
-98 956 957 958 959 0
-960 379 0
-960 386 0
-961 379 0
-961 386 0
-962 383 0
-962 388 0
-963 383 0
-963 388 0
-99 960 961 962 963 0
-964 382 0
-964 391 0
-965 382 0
-965 391 0
-966 383 0
-966 390 0
-967 383 0
-967 390 0
-100 964 965 966 967 0
-968 381 0
-968 391 0
-969 381 0
-969 391 0
-970 383 0
-970 393 0
-971 383 0
-971 393 0
-101 968 969 970 971 0
-972 374 0
-972 378 0
-973 374 0
-973 378 0
-974 386 0
-974 387 0
-975 386 0
-975 387 0
-102 972 973 974 975 0
-976 379 0
-976 383 0
-977 379 0
-977 383 0
-978 386 0
-978 388 0
-979 386 0
-979 388 0
-103 976 977 978 979 0
-980 376 0
-980 378 0
-981 376 0
-981 378 0
-982 391 0
-982 392 0
-983 391 0
-983 392 0
-104 980 981 982 983 0
-984 381 0
-984 383 0
-985 381 0
-985 383 0
-986 391 0
-986 393 0
-987 391 0
-987 393 0
-105 984 985 986 987 0
-988 395 0
-988 396 0
-989 395 0
-989 396 0
-106 988 989 0
-990 394 0
-990 396 0
-991 394 0
-991 396 0
-107 990 991 0
-992 394 0
-992 395 0
-993 394 0
-993 395 0
-108 992 993 0
-994 399 0
-994 410 0
-995 399 0
-995 410 0
-996 402 0
-996 408 0
-997 402 0
-997 408 0
-109 994 995 996 997 0
-998 398 0
-998 410 0
-999 398 0
-999 410 0
-1000 402 0
-1000 411 0
-1001 402 0
-1001 411 0
-110 998 999 1000 1001 0
-1002 401 0
-1002 415 0
-1003 401 0
-1003 415 0
-1004 402 0
-1004 413 0
-1005 402 0
-1005 413 0
-111 1002 1003 1004 1005 0
-1006 400 0
-1006 415 0
-1007 400 0
-1007 415 0
-1008 402 0
-1008 416 0
-1009 402 0
-1009 416 0
-112 1006 1007 1008 1009 0
-1010 404 0
-1010 410 0
-1011 404 0
-1011 410 0
-1012 407 0
-1012 409 0
-1013 407 0
-1013 409 0
-113 1010 1011 1012 1013 0
-1014 403 0
-1014 410 0
-1015 403 0
-1015 410 0
-1016 407 0
-1016 412 0
-1017 407 0
-1017 412 0
-114 1014 1015 1016 1017 0
-1018 406 0
-1018 415 0
-1019 406 0
-1019 415 0
-1020 407 0
-1020 414 0
-1021 407 0
-1021 414 0
-115 1018 1019 1020 1021 0
-1022 405 0
-1022 415 0
-1023 405 0
-1023 415 0
-1024 407 0
-1024 417 0
-1025 407 0
-1025 417 0
-116 1022 1023 1024 1025 0
-1026 398 0
-1026 402 0
-1027 398 0
-1027 402 0
-1028 410 0
-1028 411 0
-1029 410 0
-1029 411 0
-117 1026 1027 1028 1029 0
-1030 403 0
-1030 407 0
-1031 403 0
-1031 407 0
-1032 410 0
-1032 412 0
-1033 410 0
-1033 412 0
-118 1030 1031 1032 1033 0
-1034 400 0
-1034 402 0
-1035 400 0
-1035 402 0
-1036 415 0
-1036 416 0
-1037 415 0
-1037 416 0
-119 1034 1035 1036 1037 0
-1038 405 0
-1038 407 0
-1039 405 0
-1039 407 0
-1040 415 0
-1040 417 0
-1041 415 0
-1041 417 0
-120 1038 1039 1040 1041 0
-1042 419 0
-1042 420 0
-1043 419 0
-1043 420 0
-121 1042 1043 0
-1044 418 0
-1044 420 0
-1045 418 0
-1045 420 0
-122 1044 1045 0
-1046 418 0
-1046 419 0
-1047 418 0
-1047 419 0
-123 1046 1047 0
-1048 423 0
-1048 434 0
-1049 423 0
-1049 434 0
-1050 426 0
-1050 432 0
-1051 426 0
-1051 432 0
-124 1048 1049 1050 1051 0
-1052 422 0
-1052 434 0
-1053 422 0
-1053 434 0
-1054 426 0
-1054 435 0
-1055 426 0
-1055 435 0
-125 1052 1053 1054 1055 0
-1056 425 0
-1056 439 0
-1057 425 0
-1057 439 0
-1058 426 0
-1058 437 0
-1059 426 0
-1059 437 0
-126 1056 1057 1058 1059 0
-1060 424 0
-1060 439 0
-1061 424 0
-1061 439 0
-1062 426 0
-1062 440 0
-1063 426 0
-1063 440 0
-127 1060 1061 1062 1063 0
-1064 428 0
-1064 434 0
-1065 428 0
-1065 434 0
-1066 431 0
-1066 433 0
-1067 431 0
-1067 433 0
-128 1064 1065 1066 1067 0
-1068 427 0
-1068 434 0
-1069 427 0
-1069 434 0
-1070 431 0
-1070 436 0
-1071 431 0
-1071 436 0
-129 1068 1069 1070 1071 0
-1072 430 0
-1072 439 0
-1073 430 0
-1073 439 0
-1074 431 0
-1074 438 0
-1075 431 0
-1075 438 0
-130 1072 1073 1074 1075 0
-1076 429 0
-1076 439 0
-1077 429 0
-1077 439 0
-1078 431 0
-1078 441 0
-1079 431 0
-1079 441 0
-131 1076 1077 1078 1079 0
-1080 422 0
-1080 426 0
-1081 422 0
-1081 426 0
-1082 434 0
-1082 435 0
-1083 434 0
-1083 435 0
-132 1080 1081 1082 1083 0
-1084 427 0
-1084 431 0
-1085 427 0
-1085 431 0
-1086 434 0
-1086 436 0
-1087 434 0
-1087 436 0
-133 1084 1085 1086 1087 0
-1088 424 0
-1088 426 0
-1089 424 0
-1089 426 0
-1090 439 0
-1090 440 0
-1091 439 0
-1091 440 0
-134 1088 1089 1090 1091 0
-1092 429 0
-1092 431 0
-1093 429 0
-1093 431 0
-1094 439 0
-1094 441 0
-1095 439 0
-1095 441 0
-135 1092 1093 1094 1095 0
-1096 443 0
-1096 444 0
-1097 443 0
-1097 444 0
-136 1096 1097 0
-1098 442 0
-1098 444 0
-1099 442 0
-1099 444 0
-137 1098 1099 0
-1100 442 0
-1100 443 0
-1101 442 0
-1101 443 0
-138 1100 1101 0
-1102 447 0
-1102 458 0
-1103 447 0
-1103 458 0
-1104 450 0
-1104 456 0
-1105 450 0
-1105 456 0
-139 1102 1103 1104 1105 0
-1106 446 0
-1106 458 0
-1107 446 0
-1107 458 0
-1108 450 0
-1108 459 0
-1109 450 0
-1109 459 0
-140 1106 1107 1108 1109 0
-1110 449 0
-1110 463 0
-1111 449 0
-1111 463 0
-1112 450 0
-1112 461 0
-1113 450 0
-1113 461 0
-141 1110 1111 1112 1113 0
-1114 448 0
-1114 463 0
-1115 448 0
-1115 463 0
-1116 450 0
-1116 464 0
-1117 450 0
-1117 464 0
-142 1114 1115 1116 1117 0
-1118 452 0
-1118 458 0
-1119 452 0
-1119 458 0
-1120 455 0
-1120 457 0
-1121 455 0
-1121 457 0
-143 1118 1119 1120 1121 0
-1122 451 0
-1122 458 0
-1123 451 0
-1123 458 0
-1124 455 0
-1124 460 0
-1125 455 0
-1125 460 0
-144 1122 1123 1124 1125 0
-1126 454 0
-1126 463 0
-1127 454 0
-1127 463 0
-1128 455 0
-1128 462 0
-1129 455 0
-1129 462 0
-145 1126 1127 1128 1129 0
-1130 453 0
-1130 463 0
-1131 453 0
-1131 463 0
-1132 455 0
-1132 465 0
-1133 455 0
-1133 465 0
-146 1130 1131 1132 1133 0
-1134 446 0
-1134 450 0
-1135 446 0
-1135 450 0
-1136 458 0
-1136 459 0
-1137 458 0
-1137 459 0
-147 1134 1135 1136 1137 0
-1138 451 0
-1138 455 0
-1139 451 0
-1139 455 0
-1140 458 0
-1140 460 0
-1141 458 0
-1141 460 0
-148 1138 1139 1140 1141 0
-1142 448 0
-1142 450 0
-1143 448 0
-1143 450 0
-1144 463 0
-1144 464 0
-1145 463 0
-1145 464 0
-149 1142 1143 1144 1145 0
-1146 453 0
-1146 455 0
-1147 453 0
-1147 455 0
-1148 463 0
-1148 465 0
-1149 463 0
-1149 465 0
-150 1146 1147 1148 1149 0
-1150 467 0
-1150 468 0
-1151 467 0
-1151 468 0
-151 1150 1151 0
-1152 466 0
-1152 468 0
-1153 466 0
-1153 468 0
-152 1152 1153 0
-1154 466 0
-1154 467 0
-1155 466 0
-1155 467 0
-153 1154 1155 0
-1156 471 0
-1156 482 0
-1157 471 0
-1157 482 0
-1158 474 0
-1158 480 0
-1159 474 0
-1159 480 0
-154 1156 1157 1158 1159 0
-1160 470 0
-1160 482 0
-1161 470 0
-1161 482 0
-1162 474 0
-1162 483 0
-1163 474 0
-1163 483 0
-155 1160 1161 1162 1163 0
-1164 473 0
-1164 487 0
-1165 473 0
-1165 487 0
-1166 474 0
-1166 485 0
-1167 474 0
-1167 485 0
-156 1164 1165 1166 1167 0
-1168 472 0
-1168 487 0
-1169 472 0
-1169 487 0
-1170 474 0
-1170 488 0
-1171 474 0
-1171 488 0
-157 1168 1169 1170 1171 0
-1172 476 0
-1172 482 0
-1173 476 0
-1173 482 0
-1174 479 0
-1174 481 0
-1175 479 0
-1175 481 0
-158 1172 1173 1174 1175 0
-1176 475 0
-1176 482 0
-1177 475 0
-1177 482 0
-1178 479 0
-1178 484 0
-1179 479 0
-1179 484 0
-159 1176 1177 1178 1179 0
-1180 478 0
-1180 487 0
-1181 478 0
-1181 487 0
-1182 479 0
-1182 486 0
-1183 479 0
-1183 486 0
-160 1180 1181 1182 1183 0
-1184 477 0
-1184 487 0
-1185 477 0
-1185 487 0
-1186 479 0
-1186 489 0
-1187 479 0
-1187 489 0
-161 1184 1185 1186 1187 0
-1188 470 0
-1188 474 0
-1189 470 0
-1189 474 0
-1190 482 0
-1190 483 0
-1191 482 0
-1191 483 0
-162 1188 1189 1190 1191 0
-1192 475 0
-1192 479 0
-1193 475 0
-1193 479 0
-1194 482 0
-1194 484 0
-1195 482 0
-1195 484 0
-163 1192 1193 1194 1195 0
-1196 472 0
-1196 474 0
-1197 472 0
-1197 474 0
-1198 487 0
-1198 488 0
-1199 487 0
-1199 488 0
-164 1196 1197 1198 1199 0
-1200 477 0
-1200 479 0
-1201 477 0
-1201 479 0
-1202 487 0
-1202 489 0
-1203 487 0
-1203 489 0
-165 1200 1201 1202 1203 0
-1204 491 0
-1204 492 0
-1205 491 0
-1205 492 0
-166 1204 1205 0
-1206 490 0
-1206 492 0
-1207 490 0
-1207 492 0
-167 1206 1207 0
-1208 490 0
-1208 491 0
-1209 490 0
-1209 491 0
-168 1208 1209 0
-1210 495 0
-1210 506 0
-1211 495 0
-1211 506 0
-1212 498 0
-1212 504 0
-1213 498 0
-1213 504 0
-169 1210 1211 1212 1213 0
-1214 494 0
-1214 506 0
-1215 494 0
-1215 506 0
-1216 498 0
-1216 507 0
-1217 498 0
-1217 507 0
-170 1214 1215 1216 1217 0
-1218 497 0
-1218 511 0
-1219 497 0
-1219 511 0
-1220 498 0
-1220 509 0
-1221 498 0
-1221 509 0
-171 1218 1219 1220 1221 0
-1222 496 0
-1222 511 0
-1223 496 0
-1223 511 0
-1224 498 0
-1224 512 0
-1225 498 0
-1225 512 0
-172 1222 1223 1224 1225 0
-1226 500 0
-1226 506 0
-1227 500 0
-1227 506 0
-1228 503 0
-1228 505 0
-1229 503 0
-1229 505 0
-173 1226 1227 1228 1229 0
-1230 499 0
-1230 506 0
-1231 499 0
-1231 506 0
-1232 503 0
-1232 508 0
-1233 503 0
-1233 508 0
-174 1230 1231 1232 1233 0
-1234 502 0
-1234 511 0
-1235 502 0
-1235 511 0
-1236 503 0
-1236 510 0
-1237 503 0
-1237 510 0
-175 1234 1235 1236 1237 0
-1238 501 0
-1238 511 0
-1239 501 0
-1239 511 0
-1240 503 0
-1240 513 0
-1241 503 0
-1241 513 0
-176 1238 1239 1240 1241 0
-1242 494 0
-1242 498 0
-1243 494 0
-1243 498 0
-1244 506 0
-1244 507 0
-1245 506 0
-1245 507 0
-177 1242 1243 1244 1245 0
-1246 499 0
-1246 503 0
-1247 499 0
-1247 503 0
-1248 506 0
-1248 508 0
-1249 506 0
-1249 508 0
-178 1246 1247 1248 1249 0
-1250 496 0
-1250 498 0
-1251 496 0
-1251 498 0
-1252 511 0
-1252 512 0
-1253 511 0
-1253 512 0
-179 1250 1251 1252 1253 0
-1254 501 0
-1254 503 0
-1255 501 0
-1255 503 0
-1256 511 0
-1256 513 0
-1257 511 0
-1257 513 0
-180 1254 1255 1256 1257 0
-1258 515 0
-1258 516 0
-1259 515 0
-1259 516 0
-181 1258 1259 0
-1260 514 0
-1260 516 0
-1261 514 0
-1261 516 0
-182 1260 1261 0
-1262 514 0
-1262 515 0
-1263 514 0
-1263 515 0
-183 1262 1263 0
-1264 519 0
-1264 530 0
-1265 519 0
-1265 530 0
-1266 522 0
-1266 528 0
-1267 522 0
-1267 528 0
-184 1264 1265 1266 1267 0
-1268 518 0
-1268 530 0
-1269 518 0
-1269 530 0
-1270 522 0
-1270 531 0
-1271 522 0
-1271 531 0
-185 1268 1269 1270 1271 0
-1272 521 0
-1272 535 0
-1273 521 0
-1273 535 0
-1274 522 0
-1274 533 0
-1275 522 0
-1275 533 0
-186 1272 1273 1274 1275 0
-1276 520 0
-1276 535 0
-1277 520 0
-1277 535 0
-1278 522 0
-1278 536 0
-1279 522 0
-1279 536 0
-187 1276 1277 1278 1279 0
-1280 524 0
-1280 530 0
-1281 524 0
-1281 530 0
-1282 527 0
-1282 529 0
-1283 527 0
-1283 529 0
-188 1280 1281 1282 1283 0
-1284 523 0
-1284 530 0
-1285 523 0
-1285 530 0
-1286 527 0
-1286 532 0
-1287 527 0
-1287 532 0
-189 1284 1285 1286 1287 0
-1288 526 0
-1288 535 0
-1289 526 0
-1289 535 0
-1290 527 0
-1290 534 0
-1291 527 0
-1291 534 0
-190 1288 1289 1290 1291 0
-1292 525 0
-1292 535 0
-1293 525 0
-1293 535 0
-1294 527 0
-1294 537 0
-1295 527 0
-1295 537 0
-191 1292 1293 1294 1295 0
-1296 518 0
-1296 522 0
-1297 518 0
-1297 522 0
-1298 530 0
-1298 531 0
-1299 530 0
-1299 531 0
-192 1296 1297 1298 1299 0
-1300 523 0
-1300 527 0
-1301 523 0
-1301 527 0
-1302 530 0
-1302 532 0
-1303 530 0
-1303 532 0
-193 1300 1301 1302 1303 0
-1304 520 0
-1304 522 0
-1305 520 0
-1305 522 0
-1306 535 0
-1306 536 0
-1307 535 0
-1307 536 0
-194 1304 1305 1306 1307 0
-1308 525 0
-1308 527 0
-1309 525 0
-1309 527 0
-1310 535 0
-1310 537 0
-1311 535 0
-1311 537 0
-195 1308 1309 1310 1311 0
-1312 539 0
-1312 540 0
-1313 539 0
-1313 540 0
-196 1312 1313 0
-1314 538 0
-1314 540 0
-1315 538 0
-1315 540 0
-197 1314 1315 0
-1316 538 0
-1316 539 0
-1317 538 0
-1317 539 0
-198 1316 1317 0
-1318 543 0
-1318 554 0
-1319 543 0
-1319 554 0
-1320 546 0
-1320 552 0
-1321 546 0
-1321 552 0
-199 1318 1319 1320 1321 0
-1322 542 0
-1322 554 0
-1323 542 0
-1323 554 0
-1324 546 0
-1324 555 0
-1325 546 0
-1325 555 0
-200 1322 1323 1324 1325 0
-1326 545 0
-1326 559 0
-1327 545 0
-1327 559 0
-1328 546 0
-1328 557 0
-1329 546 0
-1329 557 0
-201 1326 1327 1328 1329 0
-1330 544 0
-1330 559 0
-1331 544 0
-1331 559 0
-1332 546 0
-1332 560 0
-1333 546 0
-1333 560 0
-202 1330 1331 1332 1333 0
-1334 548 0
-1334 554 0
-1335 548 0
-1335 554 0
-1336 551 0
-1336 553 0
-1337 551 0
-1337 553 0
-203 1334 1335 1336 1337 0
-1338 547 0
-1338 554 0
-1339 547 0
-1339 554 0
-1340 551 0
-1340 556 0
-1341 551 0
-1341 556 0
-204 1338 1339 1340 1341 0
-1342 550 0
-1342 559 0
-1343 550 0
-1343 559 0
-1344 551 0
-1344 558 0
-1345 551 0
-1345 558 0
-205 1342 1343 1344 1345 0
-1346 549 0
-1346 559 0
-1347 549 0
-1347 559 0
-1348 551 0
-1348 561 0
-1349 551 0
-1349 561 0
-206 1346 1347 1348 1349 0
-1350 542 0
-1350 546 0
-1351 542 0
-1351 546 0
-1352 554 0
-1352 555 0
-1353 554 0
-1353 555 0
-207 1350 1351 1352 1353 0
-1354 547 0
-1354 551 0
-1355 547 0
-1355 551 0
-1356 554 0
-1356 556 0
-1357 554 0
-1357 556 0
-208 1354 1355 1356 1357 0
-1358 544 0
-1358 546 0
-1359 544 0
-1359 546 0
-1360 559 0
-1360 560 0
-1361 559 0
-1361 560 0
-209 1358 1359 1360 1361 0
-1362 549 0
-1362 551 0
-1363 549 0
-1363 551 0
-1364 559 0
-1364 561 0
-1365 559 0
-1365 561 0
-210 1362 1363 1364 1365 0
-1366 563 0
-1366 564 0
-1367 563 0
-1367 564 0
-211 1366 1367 0
-1368 562 0
-1368 564 0
-1369 562 0
-1369 564 0
-212 1368 1369 0
-1370 562 0
-1370 563 0
-1371 562 0
-1371 563 0
-213 1370 1371 0
-1372 567 0
-1372 578 0
-1373 567 0
-1373 578 0
-1374 570 0
-1374 576 0
-1375 570 0
-1375 576 0
-214 1372 1373 1374 1375 0
-1376 566 0
-1376 578 0
-1377 566 0
-1377 578 0
-1378 570 0
-1378 579 0
-1379 570 0
-1379 579 0
-215 1376 1377 1378 1379 0
-1380 569 0
-1380 583 0
-1381 569 0
-1381 583 0
-1382 570 0
-1382 581 0
-1383 570 0
-1383 581 0
-216 1380 1381 1382 1383 0
-1384 568 0
-1384 583 0
-1385 568 0
-1385 583 0
-1386 570 0
-1386 584 0
-1387 570 0
-1387 584 0
-217 1384 1385 1386 1387 0
-1388 572 0
-1388 578 0
-1389 572 0
-1389 578 0
-1390 575 0
-1390 577 0
-1391 575 0
-1391 577 0
-218 1388 1389 1390 1391 0
-1392 571 0
-1392 578 0
-1393 571 0
-1393 578 0
-1394 575 0
-1394 580 0
-1395 575 0
-1395 580 0
-219 1392 1393 1394 1395 0
-1396 574 0
-1396 583 0
-1397 574 0
-1397 583 0
-1398 575 0
-1398 582 0
-1399 575 0
-1399 582 0
-220 1396 1397 1398 1399 0
-1400 573 0
-1400 583 0
-1401 573 0
-1401 583 0
-1402 575 0
-1402 585 0
-1403 575 0
-1403 585 0
-221 1400 1401 1402 1403 0
-1404 566 0
-1404 570 0
-1405 566 0
-1405 570 0
-1406 578 0
-1406 579 0
-1407 578 0
-1407 579 0
-222 1404 1405 1406 1407 0
-1408 571 0
-1408 575 0
-1409 571 0
-1409 575 0
-1410 578 0
-1410 580 0
-1411 578 0
-1411 580 0
-223 1408 1409 1410 1411 0
-1412 568 0
-1412 570 0
-1413 568 0
-1413 570 0
-1414 583 0
-1414 584 0
-1415 583 0
-1415 584 0
-224 1412 1413 1414 1415 0
-1416 573 0
-1416 575 0
-1417 573 0
-1417 575 0
-1418 583 0
-1418 585 0
-1419 583 0
-1419 585 0
-225 1416 1417 1418 1419 0
