%%MatrixMarket matrix coordinate integer general
%
8 234 302
1 120 1
1 121 1
1 129 1
1 130 1
1 138 1
1 139 1
1 147 1
1 148 1
1 156 1
1 157 1
1 165 1
1 166 1
1 174 1
1 175 1
1 183 1
1 184 1
1 192 1
1 193 1
1 201 1
1 202 1
1 210 1
1 211 1
1 219 1
1 220 1
1 228 1
1 229 1
2 118 1
2 122 1
2 127 1
2 131 1
2 136 1
2 140 1
2 145 1
2 149 1
2 154 1
2 158 1
2 163 1
2 167 1
2 172 1
2 176 1
2 181 1
2 185 1
2 190 1
2 194 1
2 199 1
2 203 1
2 208 1
2 212 1
2 217 1
2 221 1
2 226 1
2 230 1
3 119 1
3 123 1
3 128 1
3 132 1
3 137 1
3 141 1
3 146 1
3 150 1
3 155 1
3 159 1
3 164 1
3 168 1
3 173 1
3 177 1
3 182 1
3 186 1
3 191 1
3 195 1
3 200 1
3 204 1
3 209 1
3 213 1
3 218 1
3 222 1
3 227 1
3 231 1
4 119 1
4 124 1
4 128 1
4 133 1
4 137 1
4 142 1
4 146 1
4 151 1
4 155 1
4 160 1
4 164 1
4 169 1
4 173 1
4 178 1
4 182 1
4 187 1
4 191 1
4 196 1
4 200 1
4 205 1
4 209 1
4 214 1
4 218 1
4 223 1
4 227 1
4 232 1
5 1 1
5 2 1
5 3 1
5 118 1
5 119 1
5 120 1
5 121 1
5 122 1
5 123 1
5 127 1
5 128 1
5 129 1
5 130 1
5 131 1
5 132 1
5 133 1
5 134 1
5 135 1
5 136 1
5 137 1
5 138 1
5 151 1
5 152 1
5 153 1
5 163 1
5 164 1
5 165 1
5 166 1
5 167 1
5 168 1
5 175 1
5 176 1
5 177 1
5 181 1
5 182 1
5 183 1
5 184 1
5 185 1
5 186 1
5 190 1
5 191 1
5 192 1
5 193 1
5 194 1
5 195 1
5 202 1
5 203 1
5 204 1
5 208 1
5 209 1
5 210 1
5 214 1
5 215 1
5 216 1
5 217 1
5 218 1
5 219 1
5 220 1
5 221 1
5 222 1
5 223 1
5 224 1
5 225 1
5 226 1
5 227 1
5 228 1
6 1 1
6 4 1
6 118 1
6 119 1
6 123 1
6 124 1
6 131 1
6 133 1
6 135 1
6 136 1
6 146 1
6 150 1
6 153 1
6 159 1
6 163 1
6 164 1
6 167 1
6 169 1
6 173 1
6 176 1
6 177 1
6 178 1
6 181 1
6 182 1
6 185 1
6 189 1
6 190 1
6 191 1
6 194 1
6 196 1
6 200 1
6 203 1
6 204 1
6 205 1
6 208 1
6 209 1
6 216 1
6 217 1
6 221 1
6 223 1
6 225 1
6 226 1
7 2 1
7 5 1
7 119 1
7 120 1
7 121 1
7 125 1
7 132 1
7 133 1
7 134 1
7 137 1
7 147 1
7 148 1
7 151 1
7 157 1
7 164 1
7 165 1
7 168 1
7 170 1
7 174 1
7 175 1
7 177 1
7 179 1
7 182 1
7 183 1
7 186 1
7 187 1
7 191 1
7 192 1
7 195 1
7 197 1
7 201 1
7 202 1
7 204 1
7 206 1
7 209 1
7 210 1
7 214 1
7 218 1
7 222 1
7 223 1
7 224 1
7 227 1
8 1 1
8 2 1
8 6 1
8 119 1
8 121 1
8 123 1
8 126 1
8 127 1
8 128 1
8 129 1
8 131 1
8 132 1
8 133 1
8 136 1
8 137 1
8 145 1
8 149 1
8 151 1
8 153 1
8 158 1
8 164 1
8 167 1
8 168 1
8 171 1
8 172 1
8 177 1
8 180 1
8 182 1
8 185 1
8 186 1
8 188 1
8 191 1
8 194 1
8 195 1
8 198 1
8 199 1
8 204 1
8 207 1
8 209 1
8 214 1
8 216 1
8 217 1
8 218 1
8 221 1
8 222 1
8 223 1
8 226 1
8 227 1
