%%MatrixMarket matrix coordinate integer general
%
117 234 702
1 1 1
1 4 1
1 16 1
1 118 1
1 122 1
1 189 1
2 2 1
2 5 1
2 17 1
2 119 1
2 123 1
2 187 1
3 3 1
3 6 1
3 18 1
3 120 1
3 121 1
3 188 1
4 4 1
4 7 1
4 19 1
4 121 1
4 125 1
4 192 1
5 5 1
5 8 1
5 20 1
5 122 1
5 126 1
5 190 1
6 6 1
6 9 1
6 21 1
6 123 1
6 124 1
6 191 1
7 7 1
7 10 1
7 22 1
7 124 1
7 128 1
7 195 1
8 8 1
8 11 1
8 23 1
8 125 1
8 129 1
8 193 1
9 9 1
9 12 1
9 24 1
9 126 1
9 127 1
9 194 1
10 10 1
10 13 1
10 25 1
10 127 1
10 131 1
10 198 1
11 11 1
11 14 1
11 26 1
11 128 1
11 132 1
11 196 1
12 12 1
12 15 1
12 27 1
12 129 1
12 130 1
12 197 1
13 13 1
13 16 1
13 28 1
13 130 1
13 134 1
13 201 1
14 14 1
14 17 1
14 29 1
14 131 1
14 135 1
14 199 1
15 15 1
15 18 1
15 30 1
15 132 1
15 133 1
15 200 1
16 16 1
16 19 1
16 31 1
16 133 1
16 137 1
16 204 1
17 17 1
17 20 1
17 32 1
17 134 1
17 138 1
17 202 1
18 18 1
18 21 1
18 33 1
18 135 1
18 136 1
18 203 1
19 19 1
19 22 1
19 34 1
19 136 1
19 140 1
19 207 1
20 20 1
20 23 1
20 35 1
20 137 1
20 141 1
20 205 1
21 21 1
21 24 1
21 36 1
21 138 1
21 139 1
21 206 1
22 22 1
22 25 1
22 37 1
22 139 1
22 143 1
22 210 1
23 23 1
23 26 1
23 38 1
23 140 1
23 144 1
23 208 1
24 24 1
24 27 1
24 39 1
24 141 1
24 142 1
24 209 1
25 25 1
25 28 1
25 40 1
25 142 1
25 146 1
25 213 1
26 26 1
26 29 1
26 41 1
26 143 1
26 147 1
26 211 1
27 27 1
27 30 1
27 42 1
27 144 1
27 145 1
27 212 1
28 28 1
28 31 1
28 43 1
28 145 1
28 149 1
28 216 1
29 29 1
29 32 1
29 44 1
29 146 1
29 150 1
29 214 1
30 30 1
30 33 1
30 45 1
30 147 1
30 148 1
30 215 1
31 31 1
31 34 1
31 46 1
31 148 1
31 152 1
31 219 1
32 32 1
32 35 1
32 47 1
32 149 1
32 153 1
32 217 1
33 33 1
33 36 1
33 48 1
33 150 1
33 151 1
33 218 1
34 34 1
34 37 1
34 49 1
34 151 1
34 155 1
34 222 1
35 35 1
35 38 1
35 50 1
35 152 1
35 156 1
35 220 1
36 36 1
36 39 1
36 51 1
36 153 1
36 154 1
36 221 1
37 37 1
37 40 1
37 52 1
37 154 1
37 158 1
37 225 1
38 38 1
38 41 1
38 53 1
38 155 1
38 159 1
38 223 1
39 39 1
39 42 1
39 54 1
39 156 1
39 157 1
39 224 1
40 40 1
40 43 1
40 55 1
40 157 1
40 161 1
40 228 1
41 41 1
41 44 1
41 56 1
41 158 1
41 162 1
41 226 1
42 42 1
42 45 1
42 57 1
42 159 1
42 160 1
42 227 1
43 43 1
43 46 1
43 58 1
43 160 1
43 164 1
43 231 1
44 44 1
44 47 1
44 59 1
44 161 1
44 165 1
44 229 1
45 45 1
45 48 1
45 60 1
45 162 1
45 163 1
45 230 1
46 46 1
46 49 1
46 61 1
46 163 1
46 167 1
46 234 1
47 47 1
47 50 1
47 62 1
47 164 1
47 168 1
47 232 1
48 48 1
48 51 1
48 63 1
48 165 1
48 166 1
48 233 1
49 49 1
49 52 1
49 64 1
49 120 1
49 166 1
49 170 1
50 50 1
50 53 1
50 65 1
50 118 1
50 167 1
50 171 1
51 51 1
51 54 1
51 66 1
51 119 1
51 168 1
51 169 1
52 52 1
52 55 1
52 67 1
52 123 1
52 169 1
52 173 1
53 53 1
53 56 1
53 68 1
53 121 1
53 170 1
53 174 1
54 54 1
54 57 1
54 69 1
54 122 1
54 171 1
54 172 1
55 55 1
55 58 1
55 70 1
55 126 1
55 172 1
55 176 1
56 56 1
56 59 1
56 71 1
56 124 1
56 173 1
56 177 1
57 57 1
57 60 1
57 72 1
57 125 1
57 174 1
57 175 1
58 58 1
58 61 1
58 73 1
58 129 1
58 175 1
58 179 1
59 59 1
59 62 1
59 74 1
59 127 1
59 176 1
59 180 1
60 60 1
60 63 1
60 75 1
60 128 1
60 177 1
60 178 1
61 61 1
61 64 1
61 76 1
61 132 1
61 178 1
61 182 1
62 62 1
62 65 1
62 77 1
62 130 1
62 179 1
62 183 1
63 63 1
63 66 1
63 78 1
63 131 1
63 180 1
63 181 1
64 64 1
64 67 1
64 79 1
64 135 1
64 181 1
64 185 1
65 65 1
65 68 1
65 80 1
65 133 1
65 182 1
65 186 1
66 66 1
66 69 1
66 81 1
66 134 1
66 183 1
66 184 1
67 67 1
67 70 1
67 82 1
67 138 1
67 184 1
67 188 1
68 68 1
68 71 1
68 83 1
68 136 1
68 185 1
68 189 1
69 69 1
69 72 1
69 84 1
69 137 1
69 186 1
69 187 1
70 70 1
70 73 1
70 85 1
70 141 1
70 187 1
70 191 1
71 71 1
71 74 1
71 86 1
71 139 1
71 188 1
71 192 1
72 72 1
72 75 1
72 87 1
72 140 1
72 189 1
72 190 1
73 73 1
73 76 1
73 88 1
73 144 1
73 190 1
73 194 1
74 74 1
74 77 1
74 89 1
74 142 1
74 191 1
74 195 1
75 75 1
75 78 1
75 90 1
75 143 1
75 192 1
75 193 1
76 76 1
76 79 1
76 91 1
76 147 1
76 193 1
76 197 1
77 77 1
77 80 1
77 92 1
77 145 1
77 194 1
77 198 1
78 78 1
78 81 1
78 93 1
78 146 1
78 195 1
78 196 1
79 79 1
79 82 1
79 94 1
79 150 1
79 196 1
79 200 1
80 80 1
80 83 1
80 95 1
80 148 1
80 197 1
80 201 1
81 81 1
81 84 1
81 96 1
81 149 1
81 198 1
81 199 1
82 82 1
82 85 1
82 97 1
82 153 1
82 199 1
82 203 1
83 83 1
83 86 1
83 98 1
83 151 1
83 200 1
83 204 1
84 84 1
84 87 1
84 99 1
84 152 1
84 201 1
84 202 1
85 85 1
85 88 1
85 100 1
85 156 1
85 202 1
85 206 1
86 86 1
86 89 1
86 101 1
86 154 1
86 203 1
86 207 1
87 87 1
87 90 1
87 102 1
87 155 1
87 204 1
87 205 1
88 88 1
88 91 1
88 103 1
88 159 1
88 205 1
88 209 1
89 89 1
89 92 1
89 104 1
89 157 1
89 206 1
89 210 1
90 90 1
90 93 1
90 105 1
90 158 1
90 207 1
90 208 1
91 91 1
91 94 1
91 106 1
91 162 1
91 208 1
91 212 1
92 92 1
92 95 1
92 107 1
92 160 1
92 209 1
92 213 1
93 93 1
93 96 1
93 108 1
93 161 1
93 210 1
93 211 1
94 94 1
94 97 1
94 109 1
94 165 1
94 211 1
94 215 1
95 95 1
95 98 1
95 110 1
95 163 1
95 212 1
95 216 1
96 96 1
96 99 1
96 111 1
96 164 1
96 213 1
96 214 1
97 97 1
97 100 1
97 112 1
97 168 1
97 214 1
97 218 1
98 98 1
98 101 1
98 113 1
98 166 1
98 215 1
98 219 1
99 99 1
99 102 1
99 114 1
99 167 1
99 216 1
99 217 1
100 100 1
100 103 1
100 115 1
100 171 1
100 217 1
100 221 1
101 101 1
101 104 1
101 116 1
101 169 1
101 218 1
101 222 1
102 102 1
102 105 1
102 117 1
102 170 1
102 219 1
102 220 1
103 1 1
103 103 1
103 106 1
103 174 1
103 220 1
103 224 1
104 2 1
104 104 1
104 107 1
104 172 1
104 221 1
104 225 1
105 3 1
105 105 1
105 108 1
105 173 1
105 222 1
105 223 1
106 4 1
106 106 1
106 109 1
106 177 1
106 223 1
106 227 1
107 5 1
107 107 1
107 110 1
107 175 1
107 224 1
107 228 1
108 6 1
108 108 1
108 111 1
108 176 1
108 225 1
108 226 1
109 7 1
109 109 1
109 112 1
109 180 1
109 226 1
109 230 1
110 8 1
110 110 1
110 113 1
110 178 1
110 227 1
110 231 1
111 9 1
111 111 1
111 114 1
111 179 1
111 228 1
111 229 1
112 10 1
112 112 1
112 115 1
112 183 1
112 229 1
112 233 1
113 11 1
113 113 1
113 116 1
113 181 1
113 230 1
113 234 1
114 12 1
114 114 1
114 117 1
114 182 1
114 231 1
114 232 1
115 1 1
115 13 1
115 115 1
115 119 1
115 186 1
115 232 1
116 2 1
116 14 1
116 116 1
116 120 1
116 184 1
116 233 1
117 3 1
117 15 1
117 117 1
117 118 1
117 185 1
117 234 1
