%%MatrixMarket matrix coordinate integer general
%
8 234 314
1 3 1
1 4 1
1 12 1
1 13 1
1 21 1
1 22 1
1 30 1
1 31 1
1 39 1
1 40 1
1 48 1
1 49 1
1 57 1
1 58 1
1 66 1
1 67 1
1 75 1
1 76 1
1 84 1
1 85 1
1 93 1
1 94 1
1 102 1
1 103 1
1 111 1
1 112 1
2 1 1
2 5 1
2 10 1
2 14 1
2 19 1
2 23 1
2 28 1
2 32 1
2 37 1
2 41 1
2 46 1
2 50 1
2 55 1
2 59 1
2 64 1
2 68 1
2 73 1
2 77 1
2 82 1
2 86 1
2 91 1
2 95 1
2 100 1
2 104 1
2 109 1
2 113 1
3 2 1
3 6 1
3 11 1
3 15 1
3 20 1
3 24 1
3 29 1
3 33 1
3 38 1
3 42 1
3 47 1
3 51 1
3 56 1
3 60 1
3 65 1
3 69 1
3 74 1
3 78 1
3 83 1
3 87 1
3 92 1
3 96 1
3 101 1
3 105 1
3 110 1
3 114 1
4 2 1
4 7 1
4 11 1
4 16 1
4 20 1
4 25 1
4 29 1
4 34 1
4 38 1
4 43 1
4 47 1
4 52 1
4 56 1
4 61 1
4 65 1
4 70 1
4 74 1
4 79 1
4 83 1
4 88 1
4 92 1
4 97 1
4 101 1
4 106 1
4 110 1
4 115 1
5 7 1
5 8 1
5 9 1
5 16 1
5 17 1
5 18 1
5 19 1
5 20 1
5 21 1
5 22 1
5 23 1
5 24 1
5 25 1
5 26 1
5 27 1
5 31 1
5 32 1
5 33 1
5 40 1
5 41 1
5 42 1
5 43 1
5 44 1
5 45 1
5 49 1
5 50 1
5 51 1
5 52 1
5 53 1
5 54 1
5 55 1
5 56 1
5 57 1
5 58 1
5 59 1
5 60 1
5 76 1
5 77 1
5 78 1
5 79 1
5 80 1
5 81 1
5 82 1
5 83 1
5 84 1
5 88 1
5 89 1
5 90 1
5 94 1
5 95 1
5 96 1
5 97 1
5 98 1
5 99 1
5 109 1
5 110 1
5 111 1
5 118 1
5 119 1
5 120 1
6 1 1
6 6 1
6 7 1
6 10 1
6 11 1
6 14 1
6 18 1
6 20 1
6 23 1
6 28 1
6 29 1
6 32 1
6 33 1
6 34 1
6 38 1
6 43 1
6 45 1
6 52 1
6 54 1
6 56 1
6 59 1
6 61 1
6 65 1
6 69 1
6 70 1
6 72 1
6 73 1
6 77 1
6 78 1
6 82 1
6 88 1
6 91 1
6 92 1
6 95 1
6 96 1
6 100 1
6 101 1
6 104 1
6 106 1
6 108 1
6 109 1
6 110 1
6 118 1
6 121 1
7 2 1
7 4 1
7 8 1
7 11 1
7 12 1
7 15 1
7 16 1
7 21 1
7 24 1
7 29 1
7 30 1
7 31 1
7 33 1
7 35 1
7 39 1
7 43 1
7 44 1
7 52 1
7 53 1
7 57 1
7 60 1
7 62 1
7 66 1
7 67 1
7 70 1
7 71 1
7 74 1
7 76 1
7 78 1
7 83 1
7 89 1
7 92 1
7 93 1
7 94 1
7 96 1
7 101 1
7 102 1
7 105 1
7 106 1
7 107 1
7 110 1
7 111 1
7 119 1
7 122 1
8 3 1
8 5 1
8 7 1
8 8 1
8 10 1
8 12 1
8 13 1
8 16 1
8 18 1
8 20 1
8 21 1
8 23 1
8 24 1
8 25 1
8 26 1
8 27 1
8 28 1
8 30 1
8 33 1
8 36 1
8 37 1
8 40 1
8 41 1
8 42 1
8 43 1
8 49 1
8 50 1
8 51 1
8 52 1
8 56 1
8 57 1
8 59 1
8 60 1
8 63 1
8 64 1
8 68 1
8 71 1
8 72 1
8 75 1
8 78 1
8 79 1
8 80 1
8 81 1
8 82 1
8 83 1
8 88 1
8 89 1
8 91 1
8 93 1
8 96 1
8 97 1
8 98 1
8 99 1
8 100 1
8 102 1
8 103 1
8 107 1
8 108 1
8 110 1
8 118 1
8 119 1
8 123 1
