%%MatrixMarket matrix coordinate integer general
%
117 234 702
1 1 1
1 103 1
1 115 1
1 118 1
1 167 1
1 234 1
2 2 1
2 104 1
2 116 1
2 119 1
2 168 1
2 232 1
3 3 1
3 105 1
3 117 1
3 120 1
3 166 1
3 233 1
4 1 1
4 4 1
4 106 1
4 120 1
4 121 1
4 170 1
5 2 1
5 5 1
5 107 1
5 118 1
5 122 1
5 171 1
6 3 1
6 6 1
6 108 1
6 119 1
6 123 1
6 169 1
7 4 1
7 7 1
7 109 1
7 123 1
7 124 1
7 173 1
8 5 1
8 8 1
8 110 1
8 121 1
8 125 1
8 174 1
9 6 1
9 9 1
9 111 1
9 122 1
9 126 1
9 172 1
10 7 1
10 10 1
10 112 1
10 126 1
10 127 1
10 176 1
11 8 1
11 11 1
11 113 1
11 124 1
11 128 1
11 177 1
12 9 1
12 12 1
12 114 1
12 125 1
12 129 1
12 175 1
13 10 1
13 13 1
13 115 1
13 129 1
13 130 1
13 179 1
14 11 1
14 14 1
14 116 1
14 127 1
14 131 1
14 180 1
15 12 1
15 15 1
15 117 1
15 128 1
15 132 1
15 178 1
16 1 1
16 13 1
16 16 1
16 132 1
16 133 1
16 182 1
17 2 1
17 14 1
17 17 1
17 130 1
17 134 1
17 183 1
18 3 1
18 15 1
18 18 1
18 131 1
18 135 1
18 181 1
19 4 1
19 16 1
19 19 1
19 135 1
19 136 1
19 185 1
20 5 1
20 17 1
20 20 1
20 133 1
20 137 1
20 186 1
21 6 1
21 18 1
21 21 1
21 134 1
21 138 1
21 184 1
22 7 1
22 19 1
22 22 1
22 138 1
22 139 1
22 188 1
23 8 1
23 20 1
23 23 1
23 136 1
23 140 1
23 189 1
24 9 1
24 21 1
24 24 1
24 137 1
24 141 1
24 187 1
25 10 1
25 22 1
25 25 1
25 141 1
25 142 1
25 191 1
26 11 1
26 23 1
26 26 1
26 139 1
26 143 1
26 192 1
27 12 1
27 24 1
27 27 1
27 140 1
27 144 1
27 190 1
28 13 1
28 25 1
28 28 1
28 144 1
28 145 1
28 194 1
29 14 1
29 26 1
29 29 1
29 142 1
29 146 1
29 195 1
30 15 1
30 27 1
30 30 1
30 143 1
30 147 1
30 193 1
31 16 1
31 28 1
31 31 1
31 147 1
31 148 1
31 197 1
32 17 1
32 29 1
32 32 1
32 145 1
32 149 1
32 198 1
33 18 1
33 30 1
33 33 1
33 146 1
33 150 1
33 196 1
34 19 1
34 31 1
34 34 1
34 150 1
34 151 1
34 200 1
35 20 1
35 32 1
35 35 1
35 148 1
35 152 1
35 201 1
36 21 1
36 33 1
36 36 1
36 149 1
36 153 1
36 199 1
37 22 1
37 34 1
37 37 1
37 153 1
37 154 1
37 203 1
38 23 1
38 35 1
38 38 1
38 151 1
38 155 1
38 204 1
39 24 1
39 36 1
39 39 1
39 152 1
39 156 1
39 202 1
40 25 1
40 37 1
40 40 1
40 156 1
40 157 1
40 206 1
41 26 1
41 38 1
41 41 1
41 154 1
41 158 1
41 207 1
42 27 1
42 39 1
42 42 1
42 155 1
42 159 1
42 205 1
43 28 1
43 40 1
43 43 1
43 159 1
43 160 1
43 209 1
44 29 1
44 41 1
44 44 1
44 157 1
44 161 1
44 210 1
45 30 1
45 42 1
45 45 1
45 158 1
45 162 1
45 208 1
46 31 1
46 43 1
46 46 1
46 162 1
46 163 1
46 212 1
47 32 1
47 44 1
47 47 1
47 160 1
47 164 1
47 213 1
48 33 1
48 45 1
48 48 1
48 161 1
48 165 1
48 211 1
49 34 1
49 46 1
49 49 1
49 165 1
49 166 1
49 215 1
50 35 1
50 47 1
50 50 1
50 163 1
50 167 1
50 216 1
51 36 1
51 48 1
51 51 1
51 164 1
51 168 1
51 214 1
52 37 1
52 49 1
52 52 1
52 168 1
52 169 1
52 218 1
53 38 1
53 50 1
53 53 1
53 166 1
53 170 1
53 219 1
54 39 1
54 51 1
54 54 1
54 167 1
54 171 1
54 217 1
55 40 1
55 52 1
55 55 1
55 171 1
55 172 1
55 221 1
56 41 1
56 53 1
56 56 1
56 169 1
56 173 1
56 222 1
57 42 1
57 54 1
57 57 1
57 170 1
57 174 1
57 220 1
58 43 1
58 55 1
58 58 1
58 174 1
58 175 1
58 224 1
59 44 1
59 56 1
59 59 1
59 172 1
59 176 1
59 225 1
60 45 1
60 57 1
60 60 1
60 173 1
60 177 1
60 223 1
61 46 1
61 58 1
61 61 1
61 177 1
61 178 1
61 227 1
62 47 1
62 59 1
62 62 1
62 175 1
62 179 1
62 228 1
63 48 1
63 60 1
63 63 1
63 176 1
63 180 1
63 226 1
64 49 1
64 61 1
64 64 1
64 180 1
64 181 1
64 230 1
65 50 1
65 62 1
65 65 1
65 178 1
65 182 1
65 231 1
66 51 1
66 63 1
66 66 1
66 179 1
66 183 1
66 229 1
67 52 1
67 64 1
67 67 1
67 183 1
67 184 1
67 233 1
68 53 1
68 65 1
68 68 1
68 181 1
68 185 1
68 234 1
69 54 1
69 66 1
69 69 1
69 182 1
69 186 1
69 232 1
70 55 1
70 67 1
70 70 1
70 119 1
70 186 1
70 187 1
71 56 1
71 68 1
71 71 1
71 120 1
71 184 1
71 188 1
72 57 1
72 69 1
72 72 1
72 118 1
72 185 1
72 189 1
73 58 1
73 70 1
73 73 1
73 122 1
73 189 1
73 190 1
74 59 1
74 71 1
74 74 1
74 123 1
74 187 1
74 191 1
75 60 1
75 72 1
75 75 1
75 121 1
75 188 1
75 192 1
76 61 1
76 73 1
76 76 1
76 125 1
76 192 1
76 193 1
77 62 1
77 74 1
77 77 1
77 126 1
77 190 1
77 194 1
78 63 1
78 75 1
78 78 1
78 124 1
78 191 1
78 195 1
79 64 1
79 76 1
79 79 1
79 128 1
79 195 1
79 196 1
80 65 1
80 77 1
80 80 1
80 129 1
80 193 1
80 197 1
81 66 1
81 78 1
81 81 1
81 127 1
81 194 1
81 198 1
82 67 1
82 79 1
82 82 1
82 131 1
82 198 1
82 199 1
83 68 1
83 80 1
83 83 1
83 132 1
83 196 1
83 200 1
84 69 1
84 81 1
84 84 1
84 130 1
84 197 1
84 201 1
85 70 1
85 82 1
85 85 1
85 134 1
85 201 1
85 202 1
86 71 1
86 83 1
86 86 1
86 135 1
86 199 1
86 203 1
87 72 1
87 84 1
87 87 1
87 133 1
87 200 1
87 204 1
88 73 1
88 85 1
88 88 1
88 137 1
88 204 1
88 205 1
89 74 1
89 86 1
89 89 1
89 138 1
89 202 1
89 206 1
90 75 1
90 87 1
90 90 1
90 136 1
90 203 1
90 207 1
91 76 1
91 88 1
91 91 1
91 140 1
91 207 1
91 208 1
92 77 1
92 89 1
92 92 1
92 141 1
92 205 1
92 209 1
93 78 1
93 90 1
93 93 1
93 139 1
93 206 1
93 210 1
94 79 1
94 91 1
94 94 1
94 143 1
94 210 1
94 211 1
95 80 1
95 92 1
95 95 1
95 144 1
95 208 1
95 212 1
96 81 1
96 93 1
96 96 1
96 142 1
96 209 1
96 213 1
97 82 1
97 94 1
97 97 1
97 146 1
97 213 1
97 214 1
98 83 1
98 95 1
98 98 1
98 147 1
98 211 1
98 215 1
99 84 1
99 96 1
99 99 1
99 145 1
99 212 1
99 216 1
100 85 1
100 97 1
100 100 1
100 149 1
100 216 1
100 217 1
101 86 1
101 98 1
101 101 1
101 150 1
101 214 1
101 218 1
102 87 1
102 99 1
102 102 1
102 148 1
102 215 1
102 219 1
103 88 1
103 100 1
103 103 1
103 152 1
103 219 1
103 220 1
104 89 1
104 101 1
104 104 1
104 153 1
104 217 1
104 221 1
105 90 1
105 102 1
105 105 1
105 151 1
105 218 1
105 222 1
106 91 1
106 103 1
106 106 1
106 155 1
106 222 1
106 223 1
107 92 1
107 104 1
107 107 1
107 156 1
107 220 1
107 224 1
108 93 1
108 105 1
108 108 1
108 154 1
108 221 1
108 225 1
109 94 1
109 106 1
109 109 1
109 158 1
109 225 1
109 226 1
110 95 1
110 107 1
110 110 1
110 159 1
110 223 1
110 227 1
111 96 1
111 108 1
111 111 1
111 157 1
111 224 1
111 228 1
112 97 1
112 109 1
112 112 1
112 161 1
112 228 1
112 229 1
113 98 1
113 110 1
113 113 1
113 162 1
113 226 1
113 230 1
114 99 1
114 111 1
114 114 1
114 160 1
114 227 1
114 231 1
115 100 1
115 112 1
115 115 1
115 164 1
115 231 1
115 232 1
116 101 1
116 113 1
116 116 1
116 165 1
116 229 1
116 233 1
117 102 1
117 114 1
117 117 1
117 163 1
117 230 1
117 234 1
