%%MatrixMarket matrix coordinate integer general
%
117 234 702
1 1 1
1 50 1
1 117 1
1 118 1
1 220 1
1 232 1
2 2 1
2 51 1
2 115 1
2 119 1
2 221 1
2 233 1
3 3 1
3 49 1
3 116 1
3 120 1
3 222 1
3 234 1
4 3 1
4 4 1
4 53 1
4 118 1
4 121 1
4 223 1
5 1 1
5 5 1
5 54 1
5 119 1
5 122 1
5 224 1
6 2 1
6 6 1
6 52 1
6 120 1
6 123 1
6 225 1
7 6 1
7 7 1
7 56 1
7 121 1
7 124 1
7 226 1
8 4 1
8 8 1
8 57 1
8 122 1
8 125 1
8 227 1
9 5 1
9 9 1
9 55 1
9 123 1
9 126 1
9 228 1
10 9 1
10 10 1
10 59 1
10 124 1
10 127 1
10 229 1
11 7 1
11 11 1
11 60 1
11 125 1
11 128 1
11 230 1
12 8 1
12 12 1
12 58 1
12 126 1
12 129 1
12 231 1
13 12 1
13 13 1
13 62 1
13 127 1
13 130 1
13 232 1
14 10 1
14 14 1
14 63 1
14 128 1
14 131 1
14 233 1
15 11 1
15 15 1
15 61 1
15 129 1
15 132 1
15 234 1
16 15 1
16 16 1
16 65 1
16 118 1
16 130 1
16 133 1
17 13 1
17 17 1
17 66 1
17 119 1
17 131 1
17 134 1
18 14 1
18 18 1
18 64 1
18 120 1
18 132 1
18 135 1
19 18 1
19 19 1
19 68 1
19 121 1
19 133 1
19 136 1
20 16 1
20 20 1
20 69 1
20 122 1
20 134 1
20 137 1
21 17 1
21 21 1
21 67 1
21 123 1
21 135 1
21 138 1
22 21 1
22 22 1
22 71 1
22 124 1
22 136 1
22 139 1
23 19 1
23 23 1
23 72 1
23 125 1
23 137 1
23 140 1
24 20 1
24 24 1
24 70 1
24 126 1
24 138 1
24 141 1
25 24 1
25 25 1
25 74 1
25 127 1
25 139 1
25 142 1
26 22 1
26 26 1
26 75 1
26 128 1
26 140 1
26 143 1
27 23 1
27 27 1
27 73 1
27 129 1
27 141 1
27 144 1
28 27 1
28 28 1
28 77 1
28 130 1
28 142 1
28 145 1
29 25 1
29 29 1
29 78 1
29 131 1
29 143 1
29 146 1
30 26 1
30 30 1
30 76 1
30 132 1
30 144 1
30 147 1
31 30 1
31 31 1
31 80 1
31 133 1
31 145 1
31 148 1
32 28 1
32 32 1
32 81 1
32 134 1
32 146 1
32 149 1
33 29 1
33 33 1
33 79 1
33 135 1
33 147 1
33 150 1
34 33 1
34 34 1
34 83 1
34 136 1
34 148 1
34 151 1
35 31 1
35 35 1
35 84 1
35 137 1
35 149 1
35 152 1
36 32 1
36 36 1
36 82 1
36 138 1
36 150 1
36 153 1
37 36 1
37 37 1
37 86 1
37 139 1
37 151 1
37 154 1
38 34 1
38 38 1
38 87 1
38 140 1
38 152 1
38 155 1
39 35 1
39 39 1
39 85 1
39 141 1
39 153 1
39 156 1
40 39 1
40 40 1
40 89 1
40 142 1
40 154 1
40 157 1
41 37 1
41 41 1
41 90 1
41 143 1
41 155 1
41 158 1
42 38 1
42 42 1
42 88 1
42 144 1
42 156 1
42 159 1
43 42 1
43 43 1
43 92 1
43 145 1
43 157 1
43 160 1
44 40 1
44 44 1
44 93 1
44 146 1
44 158 1
44 161 1
45 41 1
45 45 1
45 91 1
45 147 1
45 159 1
45 162 1
46 45 1
46 46 1
46 95 1
46 148 1
46 160 1
46 163 1
47 43 1
47 47 1
47 96 1
47 149 1
47 161 1
47 164 1
48 44 1
48 48 1
48 94 1
48 150 1
48 162 1
48 165 1
49 48 1
49 49 1
49 98 1
49 151 1
49 163 1
49 166 1
50 46 1
50 50 1
50 99 1
50 152 1
50 164 1
50 167 1
51 47 1
51 51 1
51 97 1
51 153 1
51 165 1
51 168 1
52 51 1
52 52 1
52 101 1
52 154 1
52 166 1
52 169 1
53 49 1
53 53 1
53 102 1
53 155 1
53 167 1
53 170 1
54 50 1
54 54 1
54 100 1
54 156 1
54 168 1
54 171 1
55 54 1
55 55 1
55 104 1
55 157 1
55 169 1
55 172 1
56 52 1
56 56 1
56 105 1
56 158 1
56 170 1
56 173 1
57 53 1
57 57 1
57 103 1
57 159 1
57 171 1
57 174 1
58 57 1
58 58 1
58 107 1
58 160 1
58 172 1
58 175 1
59 55 1
59 59 1
59 108 1
59 161 1
59 173 1
59 176 1
60 56 1
60 60 1
60 106 1
60 162 1
60 174 1
60 177 1
61 60 1
61 61 1
61 110 1
61 163 1
61 175 1
61 178 1
62 58 1
62 62 1
62 111 1
62 164 1
62 176 1
62 179 1
63 59 1
63 63 1
63 109 1
63 165 1
63 177 1
63 180 1
64 63 1
64 64 1
64 113 1
64 166 1
64 178 1
64 181 1
65 61 1
65 65 1
65 114 1
65 167 1
65 179 1
65 182 1
66 62 1
66 66 1
66 112 1
66 168 1
66 180 1
66 183 1
67 66 1
67 67 1
67 116 1
67 169 1
67 181 1
67 184 1
68 64 1
68 68 1
68 117 1
68 170 1
68 182 1
68 185 1
69 65 1
69 69 1
69 115 1
69 171 1
69 183 1
69 186 1
70 2 1
70 69 1
70 70 1
70 172 1
70 184 1
70 187 1
71 3 1
71 67 1
71 71 1
71 173 1
71 185 1
71 188 1
72 1 1
72 68 1
72 72 1
72 174 1
72 186 1
72 189 1
73 5 1
73 72 1
73 73 1
73 175 1
73 187 1
73 190 1
74 6 1
74 70 1
74 74 1
74 176 1
74 188 1
74 191 1
75 4 1
75 71 1
75 75 1
75 177 1
75 189 1
75 192 1
76 8 1
76 75 1
76 76 1
76 178 1
76 190 1
76 193 1
77 9 1
77 73 1
77 77 1
77 179 1
77 191 1
77 194 1
78 7 1
78 74 1
78 78 1
78 180 1
78 192 1
78 195 1
79 11 1
79 78 1
79 79 1
79 181 1
79 193 1
79 196 1
80 12 1
80 76 1
80 80 1
80 182 1
80 194 1
80 197 1
81 10 1
81 77 1
81 81 1
81 183 1
81 195 1
81 198 1
82 14 1
82 81 1
82 82 1
82 184 1
82 196 1
82 199 1
83 15 1
83 79 1
83 83 1
83 185 1
83 197 1
83 200 1
84 13 1
84 80 1
84 84 1
84 186 1
84 198 1
84 201 1
85 17 1
85 84 1
85 85 1
85 187 1
85 199 1
85 202 1
86 18 1
86 82 1
86 86 1
86 188 1
86 200 1
86 203 1
87 16 1
87 83 1
87 87 1
87 189 1
87 201 1
87 204 1
88 20 1
88 87 1
88 88 1
88 190 1
88 202 1
88 205 1
89 21 1
89 85 1
89 89 1
89 191 1
89 203 1
89 206 1
90 19 1
90 86 1
90 90 1
90 192 1
90 204 1
90 207 1
91 23 1
91 90 1
91 91 1
91 193 1
91 205 1
91 208 1
92 24 1
92 88 1
92 92 1
92 194 1
92 206 1
92 209 1
93 22 1
93 89 1
93 93 1
93 195 1
93 207 1
93 210 1
94 26 1
94 93 1
94 94 1
94 196 1
94 208 1
94 211 1
95 27 1
95 91 1
95 95 1
95 197 1
95 209 1
95 212 1
96 25 1
96 92 1
96 96 1
96 198 1
96 210 1
96 213 1
97 29 1
97 96 1
97 97 1
97 199 1
97 211 1
97 214 1
98 30 1
98 94 1
98 98 1
98 200 1
98 212 1
98 215 1
99 28 1
99 95 1
99 99 1
99 201 1
99 213 1
99 216 1
100 32 1
100 99 1
100 100 1
100 202 1
100 214 1
100 217 1
101 33 1
101 97 1
101 101 1
101 203 1
101 215 1
101 218 1
102 31 1
102 98 1
102 102 1
102 204 1
102 216 1
102 219 1
103 35 1
103 102 1
103 103 1
103 205 1
103 217 1
103 220 1
104 36 1
104 100 1
104 104 1
104 206 1
104 218 1
104 221 1
105 34 1
105 101 1
105 105 1
105 207 1
105 219 1
105 222 1
106 38 1
106 105 1
106 106 1
106 208 1
106 220 1
106 223 1
107 39 1
107 103 1
107 107 1
107 209 1
107 221 1
107 224 1
108 37 1
108 104 1
108 108 1
108 210 1
108 222 1
108 225 1
109 41 1
109 108 1
109 109 1
109 211 1
109 223 1
109 226 1
110 42 1
110 106 1
110 110 1
110 212 1
110 224 1
110 227 1
111 40 1
111 107 1
111 111 1
111 213 1
111 225 1
111 228 1
112 44 1
112 111 1
112 112 1
112 214 1
112 226 1
112 229 1
113 45 1
113 109 1
113 113 1
113 215 1
113 227 1
113 230 1
114 43 1
114 110 1
114 114 1
114 216 1
114 228 1
114 231 1
115 47 1
115 114 1
115 115 1
115 217 1
115 229 1
115 232 1
116 48 1
116 112 1
116 116 1
116 218 1
116 230 1
116 233 1
117 46 1
117 113 1
117 117 1
117 219 1
117 231 1
117 234 1
