%%MatrixMarket matrix coordinate integer general
%
117 234 702
1 1 1
1 103 1
1 115 1
1 118 1
1 171 1
1 230 1
2 2 1
2 104 1
2 116 1
2 119 1
2 169 1
2 231 1
3 3 1
3 105 1
3 117 1
3 120 1
3 170 1
3 229 1
4 1 1
4 4 1
4 106 1
4 121 1
4 174 1
4 233 1
5 2 1
5 5 1
5 107 1
5 122 1
5 172 1
5 234 1
6 3 1
6 6 1
6 108 1
6 123 1
6 173 1
6 232 1
7 4 1
7 7 1
7 109 1
7 119 1
7 124 1
7 177 1
8 5 1
8 8 1
8 110 1
8 120 1
8 125 1
8 175 1
9 6 1
9 9 1
9 111 1
9 118 1
9 126 1
9 176 1
10 7 1
10 10 1
10 112 1
10 122 1
10 127 1
10 180 1
11 8 1
11 11 1
11 113 1
11 123 1
11 128 1
11 178 1
12 9 1
12 12 1
12 114 1
12 121 1
12 129 1
12 179 1
13 10 1
13 13 1
13 115 1
13 125 1
13 130 1
13 183 1
14 11 1
14 14 1
14 116 1
14 126 1
14 131 1
14 181 1
15 12 1
15 15 1
15 117 1
15 124 1
15 132 1
15 182 1
16 1 1
16 13 1
16 16 1
16 128 1
16 133 1
16 186 1
17 2 1
17 14 1
17 17 1
17 129 1
17 134 1
17 184 1
18 3 1
18 15 1
18 18 1
18 127 1
18 135 1
18 185 1
19 4 1
19 16 1
19 19 1
19 131 1
19 136 1
19 189 1
20 5 1
20 17 1
20 20 1
20 132 1
20 137 1
20 187 1
21 6 1
21 18 1
21 21 1
21 130 1
21 138 1
21 188 1
22 7 1
22 19 1
22 22 1
22 134 1
22 139 1
22 192 1
23 8 1
23 20 1
23 23 1
23 135 1
23 140 1
23 190 1
24 9 1
24 21 1
24 24 1
24 133 1
24 141 1
24 191 1
25 10 1
25 22 1
25 25 1
25 137 1
25 142 1
25 195 1
26 11 1
26 23 1
26 26 1
26 138 1
26 143 1
26 193 1
27 12 1
27 24 1
27 27 1
27 136 1
27 144 1
27 194 1
28 13 1
28 25 1
28 28 1
28 140 1
28 145 1
28 198 1
29 14 1
29 26 1
29 29 1
29 141 1
29 146 1
29 196 1
30 15 1
30 27 1
30 30 1
30 139 1
30 147 1
30 197 1
31 16 1
31 28 1
31 31 1
31 143 1
31 148 1
31 201 1
32 17 1
32 29 1
32 32 1
32 144 1
32 149 1
32 199 1
33 18 1
33 30 1
33 33 1
33 142 1
33 150 1
33 200 1
34 19 1
34 31 1
34 34 1
34 146 1
34 151 1
34 204 1
35 20 1
35 32 1
35 35 1
35 147 1
35 152 1
35 202 1
36 21 1
36 33 1
36 36 1
36 145 1
36 153 1
36 203 1
37 22 1
37 34 1
37 37 1
37 149 1
37 154 1
37 207 1
38 23 1
38 35 1
38 38 1
38 150 1
38 155 1
38 205 1
39 24 1
39 36 1
39 39 1
39 148 1
39 156 1
39 206 1
40 25 1
40 37 1
40 40 1
40 152 1
40 157 1
40 210 1
41 26 1
41 38 1
41 41 1
41 153 1
41 158 1
41 208 1
42 27 1
42 39 1
42 42 1
42 151 1
42 159 1
42 209 1
43 28 1
43 40 1
43 43 1
43 155 1
43 160 1
43 213 1
44 29 1
44 41 1
44 44 1
44 156 1
44 161 1
44 211 1
45 30 1
45 42 1
45 45 1
45 154 1
45 162 1
45 212 1
46 31 1
46 43 1
46 46 1
46 158 1
46 163 1
46 216 1
47 32 1
47 44 1
47 47 1
47 159 1
47 164 1
47 214 1
48 33 1
48 45 1
48 48 1
48 157 1
48 165 1
48 215 1
49 34 1
49 46 1
49 49 1
49 161 1
49 166 1
49 219 1
50 35 1
50 47 1
50 50 1
50 162 1
50 167 1
50 217 1
51 36 1
51 48 1
51 51 1
51 160 1
51 168 1
51 218 1
52 37 1
52 49 1
52 52 1
52 164 1
52 169 1
52 222 1
53 38 1
53 50 1
53 53 1
53 165 1
53 170 1
53 220 1
54 39 1
54 51 1
54 54 1
54 163 1
54 171 1
54 221 1
55 40 1
55 52 1
55 55 1
55 167 1
55 172 1
55 225 1
56 41 1
56 53 1
56 56 1
56 168 1
56 173 1
56 223 1
57 42 1
57 54 1
57 57 1
57 166 1
57 174 1
57 224 1
58 43 1
58 55 1
58 58 1
58 170 1
58 175 1
58 228 1
59 44 1
59 56 1
59 59 1
59 171 1
59 176 1
59 226 1
60 45 1
60 57 1
60 60 1
60 169 1
60 177 1
60 227 1
61 46 1
61 58 1
61 61 1
61 173 1
61 178 1
61 231 1
62 47 1
62 59 1
62 62 1
62 174 1
62 179 1
62 229 1
63 48 1
63 60 1
63 63 1
63 172 1
63 180 1
63 230 1
64 49 1
64 61 1
64 64 1
64 176 1
64 181 1
64 234 1
65 50 1
65 62 1
65 65 1
65 177 1
65 182 1
65 232 1
66 51 1
66 63 1
66 66 1
66 175 1
66 183 1
66 233 1
67 52 1
67 64 1
67 67 1
67 120 1
67 179 1
67 184 1
68 53 1
68 65 1
68 68 1
68 118 1
68 180 1
68 185 1
69 54 1
69 66 1
69 69 1
69 119 1
69 178 1
69 186 1
70 55 1
70 67 1
70 70 1
70 123 1
70 182 1
70 187 1
71 56 1
71 68 1
71 71 1
71 121 1
71 183 1
71 188 1
72 57 1
72 69 1
72 72 1
72 122 1
72 181 1
72 189 1
73 58 1
73 70 1
73 73 1
73 126 1
73 185 1
73 190 1
74 59 1
74 71 1
74 74 1
74 124 1
74 186 1
74 191 1
75 60 1
75 72 1
75 75 1
75 125 1
75 184 1
75 192 1
76 61 1
76 73 1
76 76 1
76 129 1
76 188 1
76 193 1
77 62 1
77 74 1
77 77 1
77 127 1
77 189 1
77 194 1
78 63 1
78 75 1
78 78 1
78 128 1
78 187 1
78 195 1
79 64 1
79 76 1
79 79 1
79 132 1
79 191 1
79 196 1
80 65 1
80 77 1
80 80 1
80 130 1
80 192 1
80 197 1
81 66 1
81 78 1
81 81 1
81 131 1
81 190 1
81 198 1
82 67 1
82 79 1
82 82 1
82 135 1
82 194 1
82 199 1
83 68 1
83 80 1
83 83 1
83 133 1
83 195 1
83 200 1
84 69 1
84 81 1
84 84 1
84 134 1
84 193 1
84 201 1
85 70 1
85 82 1
85 85 1
85 138 1
85 197 1
85 202 1
86 71 1
86 83 1
86 86 1
86 136 1
86 198 1
86 203 1
87 72 1
87 84 1
87 87 1
87 137 1
87 196 1
87 204 1
88 73 1
88 85 1
88 88 1
88 141 1
88 200 1
88 205 1
89 74 1
89 86 1
89 89 1
89 139 1
89 201 1
89 206 1
90 75 1
90 87 1
90 90 1
90 140 1
90 199 1
90 207 1
91 76 1
91 88 1
91 91 1
91 144 1
91 203 1
91 208 1
92 77 1
92 89 1
92 92 1
92 142 1
92 204 1
92 209 1
93 78 1
93 90 1
93 93 1
93 143 1
93 202 1
93 210 1
94 79 1
94 91 1
94 94 1
94 147 1
94 206 1
94 211 1
95 80 1
95 92 1
95 95 1
95 145 1
95 207 1
95 212 1
96 81 1
96 93 1
96 96 1
96 146 1
96 205 1
96 213 1
97 82 1
97 94 1
97 97 1
97 150 1
97 209 1
97 214 1
98 83 1
98 95 1
98 98 1
98 148 1
98 210 1
98 215 1
99 84 1
99 96 1
99 99 1
99 149 1
99 208 1
99 216 1
100 85 1
100 97 1
100 100 1
100 153 1
100 212 1
100 217 1
101 86 1
101 98 1
101 101 1
101 151 1
101 213 1
101 218 1
102 87 1
102 99 1
102 102 1
102 152 1
102 211 1
102 219 1
103 88 1
103 100 1
103 103 1
103 156 1
103 215 1
103 220 1
104 89 1
104 101 1
104 104 1
104 154 1
104 216 1
104 221 1
105 90 1
105 102 1
105 105 1
105 155 1
105 214 1
105 222 1
106 91 1
106 103 1
106 106 1
106 159 1
106 218 1
106 223 1
107 92 1
107 104 1
107 107 1
107 157 1
107 219 1
107 224 1
108 93 1
108 105 1
108 108 1
108 158 1
108 217 1
108 225 1
109 94 1
109 106 1
109 109 1
109 162 1
109 221 1
109 226 1
110 95 1
110 107 1
110 110 1
110 160 1
110 222 1
110 227 1
111 96 1
111 108 1
111 111 1
111 161 1
111 220 1
111 228 1
112 97 1
112 109 1
112 112 1
112 165 1
112 224 1
112 229 1
113 98 1
113 110 1
113 113 1
113 163 1
113 225 1
113 230 1
114 99 1
114 111 1
114 114 1
114 164 1
114 223 1
114 231 1
115 100 1
115 112 1
115 115 1
115 168 1
115 227 1
115 232 1
116 101 1
116 113 1
116 116 1
116 166 1
116 228 1
116 233 1
117 102 1
117 114 1
117 117 1
117 167 1
117 226 1
117 234 1
